ov16n                                   
   1.00000000000000     
    15.5563000000000002    0.0000000000000000    0.0000000000000000
    -7.7781500000000001   13.4721510000000002    0.0000000000000000
     0.0000010000000000    0.0000010000000000   26.1140000000000008
   Ce   H    O 
    64     1   127
Selective dynamics
Direct
  0.4166700000000034  0.5833299999999966  0.0304000000000002   F   F   F
  0.4166700000000034  0.8333299999999966  0.0304000000000002   F   F   F
  0.6666700000000034  0.8333299999999966  0.0304000000000002   F   F   F
  0.6666700000000034  0.5833299999999966  0.0304000000000002   F   F   F
  0.9166700000000034  0.5833299999999966  0.0304000000000002   F   F   F
  0.9166700000000034  0.8333299999999966  0.0304000000000002   F   F   F
  0.1666700000000034  0.3333299999999966  0.0304000000000002   F   F   F
  0.1666700000000034  0.0833299999999966  0.0304000000000002   F   F   F
  0.4166700000000034  0.0833299999999966  0.0304000000000002   F   F   F
  0.4166700000000034  0.3333299999999966  0.0304000000000002   F   F   F
  0.6666700000000034  0.3333299999999966  0.0304000000000002   F   F   F
  0.6666700000000034  0.0833299999999966  0.0304000000000002   F   F   F
  0.9166700000000034  0.0833299999999966  0.0304000000000002   F   F   F
  0.9166700000000034  0.3333299999999966  0.0304000000000002   F   F   F
  0.1666700000000034  0.8333299999999966  0.0304000000000002   F   F   F
  0.1666700000000034  0.5833299999999966  0.0304000000000002   F   F   F
  0.0000000000000000  0.5000000000000000  0.1520000000000010   F   F   F
  0.0000000000000000  0.7500000000000000  0.1520000000000010   F   F   F
  0.2500000000000000  0.7500000000000000  0.1520000000000010   F   F   F
  0.2500000000000000  0.5000000000000000  0.1520000000000010   F   F   F
  0.5000000000000000  0.5000000000000000  0.1520000000000010   F   F   F
  0.5000000000000000  0.7500000000000000  0.1520000000000010   F   F   F
  0.7500000000000000  0.7500000000000000  0.1520000000000010   F   F   F
  0.7500000000000000  0.5000000000000000  0.1520000000000010   F   F   F
  0.0000000000000000  0.0000000000000000  0.1520000000000010   F   F   F
  0.0000000000000000  0.2500000000000000  0.1520000000000010   F   F   F
  0.2500000000000000  0.2500000000000000  0.1520000000000010   F   F   F
  0.2500000000000000  0.0000000000000000  0.1520000000000010   F   F   F
  0.5000000000000000  0.0000000000000000  0.1520000000000010   F   F   F
  0.5000000000000000  0.2500000000000000  0.1520000000000010   F   F   F
  0.7500000000000000  0.2500000000000000  0.1520000000000010   F   F   F
  0.7500000000000000  0.0000000000000000  0.1520000000000010   F   F   F
  0.0832794250640987  0.4174728795591420  0.2729332618675855   T   T   T
  0.5832364866611570  0.4173873999910072  0.2751665176265092   T   T   T
  0.3328816729369208  0.6673195223688069  0.2732603155706812   T   T   T
  0.5829152634423949  0.6657743376216345  0.2758299778517284   T   T   T
  0.0832031501906627  0.6665117279452630  0.2735389176511589   T   T   T
  0.8338956060718985  0.6668673397568767  0.2730673686548997   T   T   T
  0.8338257745176350  0.9164339973540905  0.2737207928676639   T   T   T
  0.3334424477803140  0.9167338939084715  0.2739595912850277   T   T   T
  0.5834846771541748  0.9166886171610145  0.2737961732716698   T   T   T
  0.8331352342331684  0.4169145794134224  0.2733812180154800   T   T   T
  0.8339601825710190  0.1671652604781855  0.2733941148940389   T   T   T
  0.5833815589580382  0.1669201536529599  0.2736464269790844   T   T   T
  0.3340130799572307  0.4172582349080258  0.2755567952661124   T   T   T
  0.0828122273580973  0.9157229925190720  0.2730814477417454   T   T   T
  0.3329332234577791  0.1658044443862465  0.2732837071106857   T   T   T
  0.0845362696349028  0.1672726351485068  0.2741674007757169   T   T   T
  0.1626925150553760  0.3390609193149103  0.3945117209634716   T   T   T
  0.4141688170432758  0.3198127937916553  0.3943530316828543   T   T   T
  0.4182204609249069  0.8371052070039724  0.3952396490230399   T   T   T
  0.6677346924499830  0.8351689958251782  0.3954798298412996   T   T   T
  0.4084533908880559  0.5920457065318558  0.3950877280832614   T   T   T
  0.1629563889268155  0.5843301849548155  0.3951166015924130   T   T   T
  0.6833328373532197  0.5919508073337170  0.3951453063575983   T   T   T
  0.6681842523393868  0.0839149502861218  0.3937759592730288   T   T   T
  0.9178077152550372  0.8349453038698158  0.3951012841998889   T   T   T
  0.1656659649202865  0.8312271308617554  0.3959442852211055   T   T   T
  0.6685031369811298  0.3328234582907470  0.3953654337077879   T   T   T
  0.9151931606237795  0.3330968952731297  0.3937248782541261   T   T   T
  0.4185725121485859  0.0811976893148625  0.3952478133695649   T   T   T
  0.9176539503959305  0.0843641084990381  0.3940162215981431   T   T   T
  0.9183970685948282  0.5821278859457948  0.3952754323063559   T   T   T
  0.1612900026364343  0.0728822144122248  0.3940338051027226   T   T   T
  0.2350422798173923  0.2366909632772334  0.4791368681524659   T   T   T
  0.0833299999999966  0.6666700000000034  0.0000000000000000   F   F   F
  0.0833299999999966  0.9166700000000034  0.0000000000000000   F   F   F
  0.3333299999999966  0.9166700000000034  0.0000000000000000   F   F   F
  0.3333299999999966  0.4166700000000034  0.0000000000000000   F   F   F
  0.8333299999999966  0.6666700000000034  0.0000000000000000   F   F   F
  0.5833299999999966  0.6666700000000034  0.0000000000000000   F   F   F
  0.5833299999999966  0.9166700000000034  0.0000000000000000   F   F   F
  0.8333299999999966  0.9166700000000034  0.0000000000000000   F   F   F
  0.3333299999999966  0.1666700000000034  0.0000000000000000   F   F   F
  0.8333299999999966  0.1666700000000034  0.0000000000000000   F   F   F
  0.5833299999999966  0.1666700000000034  0.0000000000000000   F   F   F
  0.5833299999999966  0.4166700000000034  0.0000000000000000   F   F   F
  0.0833299999999966  0.1666700000000034  0.0000000000000000   F   F   F
  0.8333299999999966  0.4166700000000034  0.0000000000000000   F   F   F
  0.3333299999999966  0.6666700000000034  0.0000000000000000   F   F   F
  0.0833299999999966  0.4166700000000034  0.0000000000000000   F   F   F
  0.2500000000000000  0.5000000000000000  0.0608000000000004   F   F   F
  0.0000000000000000  0.5000000000000000  0.0608000000000004   F   F   F
  0.9999999999999929  0.7500000000000000  0.0608000000000004   F   F   F
  0.2500000000000000  0.7500000000000000  0.0608000000000004   F   F   F
  0.7500000000000000  0.5000000000000000  0.0608000000000004   F   F   F
  0.5000000000000000  0.5000000000000000  0.0608000000000004   F   F   F
  0.5000000000000000  0.7500000000000000  0.0608000000000004   F   F   F
  0.7500000000000000  0.7500000000000000  0.0608000000000004   F   F   F
  0.2500000000000000  0.0000000000000000  0.0608000000000004   F   F   F
  0.0000000000000000  0.0000000000000000  0.0608000000000004   F   F   F
  0.0000000000000000  0.2500000000000000  0.0608000000000004   F   F   F
  0.2500000000000000  0.2500000000000000  0.0608000000000004   F   F   F
  0.7500000000000000  0.0000000000000000  0.0608000000000004   F   F   F
  0.5000000000000000  0.0000000000000000  0.0608000000000004   F   F   F
  0.5000000000000000  0.2500000000000000  0.0608000000000004   F   F   F
  0.7500000000000000  0.2500000000000000  0.0608000000000004   F   F   F
  0.1666700000000034  0.0833299999999966  0.1216000000000008   F   F   F
  0.9166700000000034  0.8333299999999895  0.1216000000000008   F   F   F
  0.9166700000000034  0.5833299999999966  0.1216000000000008   F   F   F
  0.6666700000000034  0.5833299999999966  0.1216000000000008   F   F   F
  0.1666700000000034  0.3333299999999966  0.1216000000000008   F   F   F
  0.6666700000000034  0.3333299999999966  0.1216000000000008   F   F   F
  0.9166700000000034  0.3333299999999966  0.1216000000000008   F   F   F
  0.9166700000000034  0.0833299999999966  0.1216000000000008   F   F   F
  0.6666700000000034  0.0833299999999966  0.1216000000000008   F   F   F
  0.4166700000000034  0.3333299999999966  0.1216000000000008   F   F   F
  0.1666700000000034  0.8333299999999895  0.1216000000000008   F   F   F
  0.4166700000000034  0.8333299999999895  0.1216000000000008   F   F   F
  0.4166700000000034  0.5833299999999966  0.1216000000000008   F   F   F
  0.4166700000000105  0.0833299999999966  0.1216000000000008   F   F   F
  0.1666700000000034  0.5833299999999966  0.1216000000000008   F   F   F
  0.6666700000000034  0.8333299999999895  0.1216000000000008   F   F   F
  0.0833299999999966  0.6666700000000034  0.1824000000000012   F   F   F
  0.3333299999999966  0.6666700000000034  0.1824000000000012   F   F   F
  0.3333299999999966  0.9166700000000034  0.1824000000000012   F   F   F
  0.0833299999999966  0.9166700000000034  0.1824000000000012   F   F   F
  0.5833299999999966  0.6666700000000034  0.1824000000000012   F   F   F
  0.8333300000000037  0.6666700000000034  0.1824000000000012   F   F   F
  0.8333299999999966  0.9166700000000034  0.1824000000000012   F   F   F
  0.5833299999999966  0.9166700000000034  0.1824000000000012   F   F   F
  0.0833299999999966  0.1666700000000034  0.1824000000000012   F   F   F
  0.3333299999999966  0.1666700000000034  0.1824000000000012   F   F   F
  0.3333299999999966  0.4166700000000034  0.1824000000000012   F   F   F
  0.0833299999999966  0.4166700000000034  0.1824000000000012   F   F   F
  0.5833299999999966  0.1666700000000034  0.1824000000000012   F   F   F
  0.8333300000000037  0.1666700000000034  0.1824000000000012   F   F   F
  0.8333299999999966  0.4166700000000034  0.1824000000000012   F   F   F
  0.5833299999999966  0.4166700000000034  0.1824000000000012   F   F   F
  0.2497159283523942  0.4997271159905168  0.2432004341004586   T   T   T
  0.4996036430315343  0.4999613713486042  0.2447623146906821   T   T   T
  0.7497110006995626  0.4993516234926716  0.2431691921661283   T   T   T
  0.9997942214003359  0.4998906455048697  0.2427613780812905   T   T   T
  0.7499100839695743  0.7507158829752925  0.2433707488797410   T   T   T
  0.2502453310422297  0.7504609527812178  0.2431694308315215   T   T   T
  0.5005424838784620  0.7503821464406428  0.2436198883229608   T   T   T
  0.0002057722564643  0.7500070681420397  0.2429872329980043   T   T   T
  0.7493458811456577  0.2506186480530062  0.2432331802560554   T   T   T
  0.9999776204727482  0.0004398186812935  0.2430719925337641   T   T   T
  0.2502415431475598  0.9999047499306641  0.2431671028806122   T   T   T
  0.5002089249119237  0.2497898877888858  0.2433254382322687   T   T   T
  0.0013949427061064  0.2504343725306128  0.2431901065001369   T   T   T
  0.5000821559939297  0.0005728222132433  0.2434207867538163   T   T   T
  0.7507778930047166  0.9992833867116389  0.2437279840712421   T   T   T
  0.2493108634997512  0.2499150381369262  0.2439414498241703   T   T   T
  0.1647350358968538  0.0806096176222226  0.3043581879263542   T   T   T
  0.4176890300303597  0.8348536199741048  0.3045603894194002   T   T   T
  0.6655669528311137  0.8305547805306617  0.3064590867495198   T   T   T
  0.4159072279274980  0.3310076152562687  0.3035093738094048   T   T   T
  0.1685434498785625  0.3361953411617264  0.3058514082983379   T   T   T
  0.1655934699597879  0.5831755963645833  0.3041021631243268   T   T   T
  0.6692879870428783  0.5846845280424731  0.3034326575038548   T   T   T
  0.9167891751960084  0.8339764723800513  0.3041506304860562   T   T   T
  0.1668392813721340  0.8331196374941641  0.3048778984082219   T   T   T
  0.9160276438983814  0.3321646772315034  0.3035749000279182   T   T   T
  0.6650277084497844  0.3349108584026723  0.3060635061911228   T   T   T
  0.9167340045192489  0.5825065508924112  0.3041399172842745   T   T   T
  0.6686998744189552  0.0843453142041497  0.3037452033850698   T   T   T
  0.4165677120588285  0.0840672876933155  0.3052431421695871   T   T   T
  0.9200697071667605  0.0861937074783583  0.3052576358149039   T   T   T
  0.4143512381516459  0.5834318915817889  0.3039796426097396   T   T   T
  0.3340573342271043  0.9174231324746032  0.3643964102182125   T   T   T
  0.8359597762476980  0.9207917180824836  0.3629477358178121   T   T   T
  0.0797241685819472  0.4162585899299600  0.3626045064615298   T   T   T
  0.5815767654461581  0.4191415914704706  0.3694312949730048   T   T   T
  0.0823999458723677  0.6659199623823042  0.3637077266945354   T   T   T
  0.8408402504639341  0.6703255068978109  0.3636462680156214   T   T   T
  0.3291233011137891  0.6708522220913267  0.3638000067990532   T   T   T
  0.5807499060712686  0.6619363979092654  0.3695760066002478   T   T   T
  0.5859012862470152  0.9206622562500257  0.3630145377924450   T   T   T
  0.5855638369942895  0.1651614107797954  0.3627882223427861   T   T   T
  0.8342971300559725  0.1670138419131035  0.3637317504969957   T   T   T
  0.8344136088687790  0.4145292834834322  0.3626028658011649   T   T   T
  0.0818331958746583  0.9146683863185956  0.3635352174543840   T   T   T
  0.3330806053472415  0.4139738769759376  0.3709175213137073   T   T   T
  0.3263830340325669  0.1609783081770715  0.3649844522342605   T   T   T
  0.0904456654692893  0.1703113255554669  0.3654573390028233   T   T   T
  0.2343291698128098  0.4968311530893175  0.4273148927559163   T   T   T
  0.5029822195250659  0.7644080543594711  0.4268883414694074   T   T   T
  0.7526247541541053  0.0018198066488040  0.4246403789329989   T   T   T
  0.5008491808395803  0.0011121168101482  0.4254589101943935   T   T   T
  0.2467077594814384  0.7508830399477304  0.4262586266651454   T   T   T
  0.7608856804711195  0.7640110700953784  0.4269261164586382   T   T   T
  0.9990305868363052  0.4994087001374510  0.4253778806334481   T   T   T
  0.7605829533929054  0.4962646903994710  0.4270349964660127   T   T   T
  0.7510224500059479  0.2500218377420893  0.4247804671254158   T   T   T
  0.0005549761684733  0.2513366497591534  0.4244826812022353   T   T   T
  0.5031201073811431  0.2388228843543914  0.4268331112517885   T   T   T
  0.0028295387020805  0.7509396692380932  0.4262620345082837   T   T   T
  0.2454647554579097  0.9962311766332093  0.4260549151315800   T   T   T
  0.0016885939074740  0.0003830971233540  0.4252190638967193   T   T   T
  0.2417244058164343  0.2419576334964972  0.4420420870380042   T   T   T
 
  0.00000000E+00  0.00000000E+00  0.00000000E+00
  0.00000000E+00  0.00000000E+00  0.00000000E+00
  0.00000000E+00  0.00000000E+00  0.00000000E+00
  0.00000000E+00  0.00000000E+00  0.00000000E+00
  0.00000000E+00  0.00000000E+00  0.00000000E+00
  0.00000000E+00  0.00000000E+00  0.00000000E+00
  0.00000000E+00  0.00000000E+00  0.00000000E+00
  0.00000000E+00  0.00000000E+00  0.00000000E+00
  0.00000000E+00  0.00000000E+00  0.00000000E+00
  0.00000000E+00  0.00000000E+00  0.00000000E+00
  0.00000000E+00  0.00000000E+00  0.00000000E+00
  0.00000000E+00  0.00000000E+00  0.00000000E+00
  0.00000000E+00  0.00000000E+00  0.00000000E+00
  0.00000000E+00  0.00000000E+00  0.00000000E+00
  0.00000000E+00  0.00000000E+00  0.00000000E+00
  0.00000000E+00  0.00000000E+00  0.00000000E+00
  0.00000000E+00  0.00000000E+00  0.00000000E+00
  0.00000000E+00  0.00000000E+00  0.00000000E+00
  0.00000000E+00  0.00000000E+00  0.00000000E+00
  0.00000000E+00  0.00000000E+00  0.00000000E+00
  0.00000000E+00  0.00000000E+00  0.00000000E+00
  0.00000000E+00  0.00000000E+00  0.00000000E+00
  0.00000000E+00  0.00000000E+00  0.00000000E+00
  0.00000000E+00  0.00000000E+00  0.00000000E+00
  0.00000000E+00  0.00000000E+00  0.00000000E+00
  0.00000000E+00  0.00000000E+00  0.00000000E+00
  0.00000000E+00  0.00000000E+00  0.00000000E+00
  0.00000000E+00  0.00000000E+00  0.00000000E+00
  0.00000000E+00  0.00000000E+00  0.00000000E+00
  0.00000000E+00  0.00000000E+00  0.00000000E+00
  0.00000000E+00  0.00000000E+00  0.00000000E+00
  0.00000000E+00  0.00000000E+00  0.00000000E+00
  0.00000000E+00  0.00000000E+00  0.00000000E+00
  0.00000000E+00  0.00000000E+00  0.00000000E+00
  0.00000000E+00  0.00000000E+00  0.00000000E+00
  0.00000000E+00  0.00000000E+00  0.00000000E+00
  0.00000000E+00  0.00000000E+00  0.00000000E+00
  0.00000000E+00  0.00000000E+00  0.00000000E+00
  0.00000000E+00  0.00000000E+00  0.00000000E+00
  0.00000000E+00  0.00000000E+00  0.00000000E+00
  0.00000000E+00  0.00000000E+00  0.00000000E+00
  0.00000000E+00  0.00000000E+00  0.00000000E+00
  0.00000000E+00  0.00000000E+00  0.00000000E+00
  0.00000000E+00  0.00000000E+00  0.00000000E+00
  0.00000000E+00  0.00000000E+00  0.00000000E+00
  0.00000000E+00  0.00000000E+00  0.00000000E+00
  0.00000000E+00  0.00000000E+00  0.00000000E+00
  0.00000000E+00  0.00000000E+00  0.00000000E+00
  0.00000000E+00  0.00000000E+00  0.00000000E+00
  0.00000000E+00  0.00000000E+00  0.00000000E+00
  0.00000000E+00  0.00000000E+00  0.00000000E+00
  0.00000000E+00  0.00000000E+00  0.00000000E+00
  0.00000000E+00  0.00000000E+00  0.00000000E+00
  0.00000000E+00  0.00000000E+00  0.00000000E+00
  0.00000000E+00  0.00000000E+00  0.00000000E+00
  0.00000000E+00  0.00000000E+00  0.00000000E+00
  0.00000000E+00  0.00000000E+00  0.00000000E+00
  0.00000000E+00  0.00000000E+00  0.00000000E+00
  0.00000000E+00  0.00000000E+00  0.00000000E+00
  0.00000000E+00  0.00000000E+00  0.00000000E+00
  0.00000000E+00  0.00000000E+00  0.00000000E+00
  0.00000000E+00  0.00000000E+00  0.00000000E+00
  0.00000000E+00  0.00000000E+00  0.00000000E+00
  0.00000000E+00  0.00000000E+00  0.00000000E+00
  0.00000000E+00  0.00000000E+00  0.00000000E+00
  0.00000000E+00  0.00000000E+00  0.00000000E+00
  0.00000000E+00  0.00000000E+00  0.00000000E+00
  0.00000000E+00  0.00000000E+00  0.00000000E+00
  0.00000000E+00  0.00000000E+00  0.00000000E+00
  0.00000000E+00  0.00000000E+00  0.00000000E+00
  0.00000000E+00  0.00000000E+00  0.00000000E+00
  0.00000000E+00  0.00000000E+00  0.00000000E+00
  0.00000000E+00  0.00000000E+00  0.00000000E+00
  0.00000000E+00  0.00000000E+00  0.00000000E+00
  0.00000000E+00  0.00000000E+00  0.00000000E+00
  0.00000000E+00  0.00000000E+00  0.00000000E+00
  0.00000000E+00  0.00000000E+00  0.00000000E+00
  0.00000000E+00  0.00000000E+00  0.00000000E+00
  0.00000000E+00  0.00000000E+00  0.00000000E+00
  0.00000000E+00  0.00000000E+00  0.00000000E+00
  0.00000000E+00  0.00000000E+00  0.00000000E+00
  0.00000000E+00  0.00000000E+00  0.00000000E+00
  0.00000000E+00  0.00000000E+00  0.00000000E+00
  0.00000000E+00  0.00000000E+00  0.00000000E+00
  0.00000000E+00  0.00000000E+00  0.00000000E+00
  0.00000000E+00  0.00000000E+00  0.00000000E+00
  0.00000000E+00  0.00000000E+00  0.00000000E+00
  0.00000000E+00  0.00000000E+00  0.00000000E+00
  0.00000000E+00  0.00000000E+00  0.00000000E+00
  0.00000000E+00  0.00000000E+00  0.00000000E+00
  0.00000000E+00  0.00000000E+00  0.00000000E+00
  0.00000000E+00  0.00000000E+00  0.00000000E+00
  0.00000000E+00  0.00000000E+00  0.00000000E+00
  0.00000000E+00  0.00000000E+00  0.00000000E+00
  0.00000000E+00  0.00000000E+00  0.00000000E+00
  0.00000000E+00  0.00000000E+00  0.00000000E+00
  0.00000000E+00  0.00000000E+00  0.00000000E+00
  0.00000000E+00  0.00000000E+00  0.00000000E+00
  0.00000000E+00  0.00000000E+00  0.00000000E+00
  0.00000000E+00  0.00000000E+00  0.00000000E+00
  0.00000000E+00  0.00000000E+00  0.00000000E+00
  0.00000000E+00  0.00000000E+00  0.00000000E+00
  0.00000000E+00  0.00000000E+00  0.00000000E+00
  0.00000000E+00  0.00000000E+00  0.00000000E+00
  0.00000000E+00  0.00000000E+00  0.00000000E+00
  0.00000000E+00  0.00000000E+00  0.00000000E+00
  0.00000000E+00  0.00000000E+00  0.00000000E+00
  0.00000000E+00  0.00000000E+00  0.00000000E+00
  0.00000000E+00  0.00000000E+00  0.00000000E+00
  0.00000000E+00  0.00000000E+00  0.00000000E+00
  0.00000000E+00  0.00000000E+00  0.00000000E+00
  0.00000000E+00  0.00000000E+00  0.00000000E+00
  0.00000000E+00  0.00000000E+00  0.00000000E+00
  0.00000000E+00  0.00000000E+00  0.00000000E+00
  0.00000000E+00  0.00000000E+00  0.00000000E+00
  0.00000000E+00  0.00000000E+00  0.00000000E+00
  0.00000000E+00  0.00000000E+00  0.00000000E+00
  0.00000000E+00  0.00000000E+00  0.00000000E+00
  0.00000000E+00  0.00000000E+00  0.00000000E+00
  0.00000000E+00  0.00000000E+00  0.00000000E+00
  0.00000000E+00  0.00000000E+00  0.00000000E+00
  0.00000000E+00  0.00000000E+00  0.00000000E+00
  0.00000000E+00  0.00000000E+00  0.00000000E+00
  0.00000000E+00  0.00000000E+00  0.00000000E+00
  0.00000000E+00  0.00000000E+00  0.00000000E+00
  0.00000000E+00  0.00000000E+00  0.00000000E+00
  0.00000000E+00  0.00000000E+00  0.00000000E+00
  0.00000000E+00  0.00000000E+00  0.00000000E+00
  0.00000000E+00  0.00000000E+00  0.00000000E+00
  0.00000000E+00  0.00000000E+00  0.00000000E+00
  0.00000000E+00  0.00000000E+00  0.00000000E+00
  0.00000000E+00  0.00000000E+00  0.00000000E+00
  0.00000000E+00  0.00000000E+00  0.00000000E+00
  0.00000000E+00  0.00000000E+00  0.00000000E+00
  0.00000000E+00  0.00000000E+00  0.00000000E+00
  0.00000000E+00  0.00000000E+00  0.00000000E+00
  0.00000000E+00  0.00000000E+00  0.00000000E+00
  0.00000000E+00  0.00000000E+00  0.00000000E+00
  0.00000000E+00  0.00000000E+00  0.00000000E+00
  0.00000000E+00  0.00000000E+00  0.00000000E+00
  0.00000000E+00  0.00000000E+00  0.00000000E+00
  0.00000000E+00  0.00000000E+00  0.00000000E+00
  0.00000000E+00  0.00000000E+00  0.00000000E+00
  0.00000000E+00  0.00000000E+00  0.00000000E+00
  0.00000000E+00  0.00000000E+00  0.00000000E+00
  0.00000000E+00  0.00000000E+00  0.00000000E+00
  0.00000000E+00  0.00000000E+00  0.00000000E+00
  0.00000000E+00  0.00000000E+00  0.00000000E+00
  0.00000000E+00  0.00000000E+00  0.00000000E+00
  0.00000000E+00  0.00000000E+00  0.00000000E+00
  0.00000000E+00  0.00000000E+00  0.00000000E+00
  0.00000000E+00  0.00000000E+00  0.00000000E+00
  0.00000000E+00  0.00000000E+00  0.00000000E+00
  0.00000000E+00  0.00000000E+00  0.00000000E+00
  0.00000000E+00  0.00000000E+00  0.00000000E+00
  0.00000000E+00  0.00000000E+00  0.00000000E+00
  0.00000000E+00  0.00000000E+00  0.00000000E+00
  0.00000000E+00  0.00000000E+00  0.00000000E+00
  0.00000000E+00  0.00000000E+00  0.00000000E+00
  0.00000000E+00  0.00000000E+00  0.00000000E+00
  0.00000000E+00  0.00000000E+00  0.00000000E+00
  0.00000000E+00  0.00000000E+00  0.00000000E+00
  0.00000000E+00  0.00000000E+00  0.00000000E+00
  0.00000000E+00  0.00000000E+00  0.00000000E+00
  0.00000000E+00  0.00000000E+00  0.00000000E+00
  0.00000000E+00  0.00000000E+00  0.00000000E+00
  0.00000000E+00  0.00000000E+00  0.00000000E+00
  0.00000000E+00  0.00000000E+00  0.00000000E+00
  0.00000000E+00  0.00000000E+00  0.00000000E+00
  0.00000000E+00  0.00000000E+00  0.00000000E+00
  0.00000000E+00  0.00000000E+00  0.00000000E+00
  0.00000000E+00  0.00000000E+00  0.00000000E+00
  0.00000000E+00  0.00000000E+00  0.00000000E+00
  0.00000000E+00  0.00000000E+00  0.00000000E+00
  0.00000000E+00  0.00000000E+00  0.00000000E+00
  0.00000000E+00  0.00000000E+00  0.00000000E+00
  0.00000000E+00  0.00000000E+00  0.00000000E+00
  0.00000000E+00  0.00000000E+00  0.00000000E+00
  0.00000000E+00  0.00000000E+00  0.00000000E+00
  0.00000000E+00  0.00000000E+00  0.00000000E+00
  0.00000000E+00  0.00000000E+00  0.00000000E+00
  0.00000000E+00  0.00000000E+00  0.00000000E+00
  0.00000000E+00  0.00000000E+00  0.00000000E+00
  0.00000000E+00  0.00000000E+00  0.00000000E+00
  0.00000000E+00  0.00000000E+00  0.00000000E+00
  0.00000000E+00  0.00000000E+00  0.00000000E+00
  0.00000000E+00  0.00000000E+00  0.00000000E+00
  0.00000000E+00  0.00000000E+00  0.00000000E+00
  0.00000000E+00  0.00000000E+00  0.00000000E+00
  0.00000000E+00  0.00000000E+00  0.00000000E+00
  0.00000000E+00  0.00000000E+00  0.00000000E+00
  0.00000000E+00  0.00000000E+00  0.00000000E+00
