12n                                     
   1.00000000000000     
    13.4721510000000002    0.0000000000000000    0.0000000000000000
     6.7360755000000001   11.6672250000000002    0.0000000000000000
     0.0000002500000000    0.0000002500000000   26.1140000000000008
   Ce   H    O 
    48     1    95
Selective dynamics
Direct
  0.5089628798769136  0.1781277098138511  0.0304000000000003   F   F   F
  0.1756295465435826  0.3447943764805217  0.0304000000000003   F   F   F
  0.0089628798769100  0.6781277098138601  0.0304000000000003   F   F   F
  0.3422962132102473  0.5114610431471869  0.0304000000000003   F   F   F
  0.8422962132102488  0.5114610431471869  0.0304000000000003   F   F   F
  0.5089628798769130  0.6781277098138601  0.0304000000000003   F   F   F
  0.3422962132102469  0.0114610431471860  0.0304000000000003   F   F   F
  0.6756295465435822  0.8447943764805265  0.0304000000000003   F   F   F
  0.8422962132102502  0.0114610431471789  0.0304000000000003   F   F   F
  0.6756295465435851  0.3447943764805217  0.0304000000000003   F   F   F
  0.0089628798769035  0.1781277098138724  0.0304000000000003   F   F   F
  0.1756295465435813  0.8447943764805121  0.0304000000000003   F   F   F
  0.1756362160713890  0.6781210509639450  0.1520000000000017   F   F   F
  0.1756362160713888  0.1781210509639455  0.1520000000000017   F   F   F
  0.8423028827380534  0.8447877176306164  0.1520000000000017   F   F   F
  0.3423028827380518  0.3447877176306164  0.1520000000000017   F   F   F
  0.0089695494047242  0.5114543842972807  0.1520000000000017   F   F   F
  0.5089695494047248  0.5114543842972807  0.1520000000000017   F   F   F
  0.8423028827380670  0.3447877176306093  0.1520000000000017   F   F   F
  0.6756362160713956  0.6781210509639523  0.1520000000000017   F   F   F
  0.3423028827380516  0.8447877176306259  0.1520000000000017   F   F   F
  0.5089695494047324  0.0114543842972808  0.1520000000000017   F   F   F
  0.0089695494047319  0.0114543842972737  0.1520000000000017   F   F   F
  0.6756362160713878  0.1781210509639455  0.1520000000000017   F   F   F
  0.0093319199679071  0.3452488582382593  0.2742702590259391   T   T   T
  0.3398829497027214  0.1791615116977306  0.2745443624463269   T   T   T
  0.0076075662350957  0.8461818920643042  0.2734344577333305   T   T   T
  0.1752605148149460  0.5134087548233626  0.2722661837199009   T   T   T
  0.5081756824547519  0.3447721316923070  0.2726070596542790   T   T   T
  0.6732687003381532  0.0112914811803750  0.2719997435041918   T   T   T
  0.8409143485935813  0.1781331816372550  0.2722656362646538   T   T   T
  0.1746219310991298  0.0120693988143307  0.2747724954128670   T   T   T
  0.8415700787093667  0.6791081910533402  0.2728234349686516   T   T   T
  0.3430165750831043  0.6773871788556545  0.2722180673729013   T   T   T
  0.5087158511668384  0.8438022658728768  0.2720798280237989   T   T   T
  0.6759985547987547  0.5109022243861236  0.2725662068405593   T   T   T
  0.8397382614768164  0.5150106072793613  0.3942791747993455   T   T   T
  0.6754596621929519  0.8439887657828641  0.3933843121720282   T   T   T
  0.5059971580942186  0.1790142456924584  0.3940851428869261   T   T   T
  0.1742705972165664  0.3639263847635760  0.3933845057454580   T   T   T
  0.8297618583187657  0.0120529822453063  0.3922042619484842   T   T   T
  0.3457425965598201  0.5109162772221858  0.3932403977675502   T   T   T
  0.1840241723101198  0.8358547891460604  0.3936448564884655   T   T   T
 -0.0079945060680766  0.1841962971286961  0.3928232742485582   T   T   T
  0.3564344477582488 -0.0044391510170094  0.3933362221347910   T   T   T
  0.6719939368966801  0.3470625288302103  0.3932853844336671   T   T   T
  0.0048145843421692  0.6842701802616161  0.3937510769558599   T   T   T
  0.5115839319220746  0.6731018403264337  0.3932385000195089   T   T   T
  0.9993094437962549  1.0002497412599747  0.4774998876525010   T   T   T
  0.3423095458283129  0.6781143745263050  0.0000000000000000   F   F   F
  0.1756428791616429  0.0114477078596451  0.0000000000000000   F   F   F
  0.8423095458283052  0.6781143745263192  0.0000000000000000   F   F   F
  0.1756428791616415  0.5114477078596477  0.0000000000000000   F   F   F
  0.3423095458283072  0.1781143745263167  0.0000000000000000   F   F   F
  0.0089762124949769  0.8447810411929841  0.0000000000000000   F   F   F
  0.5089762124949789  0.3447810411929813  0.0000000000000000   F   F   F
  0.5089762124949777  0.8447810411929841  0.0000000000000000   F   F   F
  0.8423095458283072  0.1781143745263236  0.0000000000000000   F   F   F
  0.6756428791616441  0.0114477078596451  0.0000000000000000   F   F   F
  0.6756428791616407  0.5114477078596477  0.0000000000000000   F   F   F
  0.0089762124949782  0.3447810411929813  0.0000000000000000   F   F   F
  0.1756362139255484  0.6781210451013608  0.0608000000000006   F   F   F
  0.0089695472588633  0.5114543784347092  0.0608000000000006   F   F   F
  0.1756362139255213  0.1781210451013852  0.0608000000000006   F   F   F
  0.8423028805921930  0.8447877117680507  0.0608000000000006   F   F   F
  0.3423028805922077  0.3447877117680491  0.0608000000000006   F   F   F
  0.3423028805922057  0.8447877117680382  0.0608000000000006   F   F   F
  0.5089695472588696  0.5114543784347092  0.0608000000000006   F   F   F
  0.8423028805922039  0.3447877117680364  0.0608000000000006   F   F   F
  0.6756362139255336  0.6781210451013744  0.0608000000000006   F   F   F
  0.6756362139255347  0.1781210451013713  0.0608000000000006   F   F   F
  0.5089695472588717  0.0114543784347063  0.0608000000000006   F   F   F
  0.0089695472588716  0.0114543784347063  0.0608000000000006   F   F   F
  0.5089628820227645  0.6781277156764318  0.1216000000000013   F   F   F
  0.3422962153560719  0.5114610490097817  0.1216000000000013   F   F   F
  0.1756295486894140  0.3447943823431186  0.1216000000000013   F   F   F
  0.8422962153561007  0.5114610490097604  0.1216000000000013   F   F   F
  0.6756295486894288  0.3447943823431104  0.1216000000000013   F   F   F
  0.8422962153561002  0.0114610490097604  0.1216000000000013   F   F   F
  0.0089628820227646  0.1781277156764322  0.1216000000000013   F   F   F
  0.6756295486894266  0.8447943823431003  0.1216000000000013   F   F   F
  0.1756295486894142  0.8447943823431003  0.1216000000000013   F   F   F
  0.0089628820227493  0.6781277156764389  0.1216000000000013   F   F   F
  0.3422962153560923  0.0114610490097817  0.1216000000000013   F   F   F
  0.5089628820227442  0.1781277156764391  0.1216000000000013   F   F   F
  0.3423095501200125  0.6781143862514680  0.1824000000000019   F   F   F
  0.3423095501200125  0.1781143862514803  0.1824000000000019   F   F   F
  0.0089762167866767  0.8447810529181461  0.1824000000000019   F   F   F
  0.1756428834533408  0.5114477195848178  0.1824000000000019   F   F   F
  0.5089762167866698  0.3447810529181526  0.1824000000000019   F   F   F
  0.6756428834533483  0.5114477195848036  0.1824000000000019   F   F   F
  0.5089762167866768  0.8447810529181401  0.1824000000000019   F   F   F
  0.1756428834533423  0.0114477195848082  0.1824000000000019   F   F   F
  0.8423095501200136  0.6781143862514751  0.1824000000000019   F   F   F
  0.8423095501199994  0.1781143862514944  0.1824000000000019   F   F   F
  0.0089762167866703  0.3447810529181526  0.1824000000000019   F   F   F
  0.6756428834533412  0.0114477195848153  0.1824000000000019   F   F   F
  0.1749128141536419  0.1785620715468960  0.2440169019670798   T   T   T
  0.8416589941773581  0.8447705051778849  0.2422462187139482   T   T   T
  0.0073916308292216  0.5136838783351451  0.2427893376902791   T   T   T
  0.3424167976678302  0.3446892479823057  0.2423777321917996   T   T   T
  0.1746821392456518  0.6793965980557944  0.2427173989601264   T   T   T
  0.5097318085613081  0.5104232487417681  0.2423837971328967   T   T   T
  0.3408071092739904  0.8448203364148950  0.2424709192682764   T   T   T
  0.5073856360642350  0.0124498668286494  0.2424585454025873   T   T   T
  0.8417344429215966  0.3459072561163410  0.2423165431824064   T   T   T
  0.6739489637391866  0.1783699339538801  0.2424743426114924   T   T   T
  0.0089588078695899  0.0106566005422231  0.2433335872041299   T   T   T
  0.6766571002108784  0.6769011427406221  0.2426130997076164   T   T   T
  0.5079778939174262  0.6780365521849259  0.3025071575523118   T   T   T
  0.5043039695144296  0.1788975849959813  0.3047766823107540   T   T   T
  0.6734784024082748  0.8459859516400700  0.3026755779949466   T   T   T
  0.8450211224814312  0.5091311586158463  0.3051803938531336   T   T   T
  0.1744271767450593  0.3494796724491381  0.3021023195722511   T   T   T
  0.3433427077787424  0.5101115551243749  0.3027392080272577   T   T   T
  0.1769516005613047  0.8444869369634855  0.3048109305990022   T   T   T
  0.0048266366441163  0.1804101712188404  0.3021886736354347   T   T   T
  0.8392934734697368  0.0109650448204400  0.3026874023718494   T   T   T
  0.6777732956197460  0.3434704561182391  0.3035091001294144   T   T   T
  0.3424165592558589  0.0091034828689558  0.3027171035098293   T   T   T
  0.0064693330311412  0.6825100351859424  0.3043439306684707   T   T   T
  0.5110346345032110  0.3448924499365269  0.3615381609917570   T   T   T
  0.0133554933625642  0.3414624192534854  0.3685143679159265   T   T   T
  0.1745592255919438  0.5219198001732539  0.3623547558449481   T   T   T
  0.3352648309235584  0.1793972735380792  0.3679851558732333   T   T   T
  0.0059683657361244  0.8534783577153090  0.3643208719295778   T   T   T
  0.6736774996778283  0.0114399690525527  0.3610538913441584   T   T   T
  0.8386514279652608  0.1719599993796815  0.3635844136686562   T   T   T
  0.3448253052943278  0.6737071703978820  0.3614389878976382   T   T   T
  0.1696996926833433  0.0136560105123727  0.3685259684818055   T   T   T
  0.8382006855459516  0.6826571182869604  0.3617577487431136   T   T   T
  0.5145164990225597  0.8371714495692405  0.3623695631387427   T   T   T
  0.6728701701899272  0.5135812235170493  0.3612893661152204   T   T   T
  0.6712448969004939  0.1753492536730971  0.4242146106088847   T   T   T
  0.3520559482039047  0.3510125905182146  0.4254600017902543   T   T   T
  0.9966905379351212  0.5317297221777182  0.4254112134976928   T   T   T
  0.8249408675682313  0.3558031776844297  0.4250009935435918   T   T   T
  0.5221145377140991  0.0061923688820627  0.4254536471551029   T   T   T
  0.1761380701915052  0.6831175846904564  0.4245526206217395   T   T   T
  0.3468034183821237  0.8272900693051285  0.4257067872727079   T   T   T
  0.5103485534130543  0.5098328242223583  0.4241185851793005   T   T   T
  0.0028311008398070  0.0062982649240954  0.4405181000997825   T   T   T
  0.8385406212702503  0.8483979043935110  0.4241361496957176   T   T   T
  0.6777397564031377  0.6748250701337509  0.4245455666512338   T   T   T
 
  0.00000000E+00  0.00000000E+00  0.00000000E+00
  0.00000000E+00  0.00000000E+00  0.00000000E+00
  0.00000000E+00  0.00000000E+00  0.00000000E+00
  0.00000000E+00  0.00000000E+00  0.00000000E+00
  0.00000000E+00  0.00000000E+00  0.00000000E+00
  0.00000000E+00  0.00000000E+00  0.00000000E+00
  0.00000000E+00  0.00000000E+00  0.00000000E+00
  0.00000000E+00  0.00000000E+00  0.00000000E+00
  0.00000000E+00  0.00000000E+00  0.00000000E+00
  0.00000000E+00  0.00000000E+00  0.00000000E+00
  0.00000000E+00  0.00000000E+00  0.00000000E+00
  0.00000000E+00  0.00000000E+00  0.00000000E+00
  0.00000000E+00  0.00000000E+00  0.00000000E+00
  0.00000000E+00  0.00000000E+00  0.00000000E+00
  0.00000000E+00  0.00000000E+00  0.00000000E+00
  0.00000000E+00  0.00000000E+00  0.00000000E+00
  0.00000000E+00  0.00000000E+00  0.00000000E+00
  0.00000000E+00  0.00000000E+00  0.00000000E+00
  0.00000000E+00  0.00000000E+00  0.00000000E+00
  0.00000000E+00  0.00000000E+00  0.00000000E+00
  0.00000000E+00  0.00000000E+00  0.00000000E+00
  0.00000000E+00  0.00000000E+00  0.00000000E+00
  0.00000000E+00  0.00000000E+00  0.00000000E+00
  0.00000000E+00  0.00000000E+00  0.00000000E+00
  0.00000000E+00  0.00000000E+00  0.00000000E+00
  0.00000000E+00  0.00000000E+00  0.00000000E+00
  0.00000000E+00  0.00000000E+00  0.00000000E+00
  0.00000000E+00  0.00000000E+00  0.00000000E+00
  0.00000000E+00  0.00000000E+00  0.00000000E+00
  0.00000000E+00  0.00000000E+00  0.00000000E+00
  0.00000000E+00  0.00000000E+00  0.00000000E+00
  0.00000000E+00  0.00000000E+00  0.00000000E+00
  0.00000000E+00  0.00000000E+00  0.00000000E+00
  0.00000000E+00  0.00000000E+00  0.00000000E+00
  0.00000000E+00  0.00000000E+00  0.00000000E+00
  0.00000000E+00  0.00000000E+00  0.00000000E+00
  0.00000000E+00  0.00000000E+00  0.00000000E+00
  0.00000000E+00  0.00000000E+00  0.00000000E+00
  0.00000000E+00  0.00000000E+00  0.00000000E+00
  0.00000000E+00  0.00000000E+00  0.00000000E+00
  0.00000000E+00  0.00000000E+00  0.00000000E+00
  0.00000000E+00  0.00000000E+00  0.00000000E+00
  0.00000000E+00  0.00000000E+00  0.00000000E+00
  0.00000000E+00  0.00000000E+00  0.00000000E+00
  0.00000000E+00  0.00000000E+00  0.00000000E+00
  0.00000000E+00  0.00000000E+00  0.00000000E+00
  0.00000000E+00  0.00000000E+00  0.00000000E+00
  0.00000000E+00  0.00000000E+00  0.00000000E+00
  0.00000000E+00  0.00000000E+00  0.00000000E+00
  0.00000000E+00  0.00000000E+00  0.00000000E+00
  0.00000000E+00  0.00000000E+00  0.00000000E+00
  0.00000000E+00  0.00000000E+00  0.00000000E+00
  0.00000000E+00  0.00000000E+00  0.00000000E+00
  0.00000000E+00  0.00000000E+00  0.00000000E+00
  0.00000000E+00  0.00000000E+00  0.00000000E+00
  0.00000000E+00  0.00000000E+00  0.00000000E+00
  0.00000000E+00  0.00000000E+00  0.00000000E+00
  0.00000000E+00  0.00000000E+00  0.00000000E+00
  0.00000000E+00  0.00000000E+00  0.00000000E+00
  0.00000000E+00  0.00000000E+00  0.00000000E+00
  0.00000000E+00  0.00000000E+00  0.00000000E+00
  0.00000000E+00  0.00000000E+00  0.00000000E+00
  0.00000000E+00  0.00000000E+00  0.00000000E+00
  0.00000000E+00  0.00000000E+00  0.00000000E+00
  0.00000000E+00  0.00000000E+00  0.00000000E+00
  0.00000000E+00  0.00000000E+00  0.00000000E+00
  0.00000000E+00  0.00000000E+00  0.00000000E+00
  0.00000000E+00  0.00000000E+00  0.00000000E+00
  0.00000000E+00  0.00000000E+00  0.00000000E+00
  0.00000000E+00  0.00000000E+00  0.00000000E+00
  0.00000000E+00  0.00000000E+00  0.00000000E+00
  0.00000000E+00  0.00000000E+00  0.00000000E+00
  0.00000000E+00  0.00000000E+00  0.00000000E+00
  0.00000000E+00  0.00000000E+00  0.00000000E+00
  0.00000000E+00  0.00000000E+00  0.00000000E+00
  0.00000000E+00  0.00000000E+00  0.00000000E+00
  0.00000000E+00  0.00000000E+00  0.00000000E+00
  0.00000000E+00  0.00000000E+00  0.00000000E+00
  0.00000000E+00  0.00000000E+00  0.00000000E+00
  0.00000000E+00  0.00000000E+00  0.00000000E+00
  0.00000000E+00  0.00000000E+00  0.00000000E+00
  0.00000000E+00  0.00000000E+00  0.00000000E+00
  0.00000000E+00  0.00000000E+00  0.00000000E+00
  0.00000000E+00  0.00000000E+00  0.00000000E+00
  0.00000000E+00  0.00000000E+00  0.00000000E+00
  0.00000000E+00  0.00000000E+00  0.00000000E+00
  0.00000000E+00  0.00000000E+00  0.00000000E+00
  0.00000000E+00  0.00000000E+00  0.00000000E+00
  0.00000000E+00  0.00000000E+00  0.00000000E+00
  0.00000000E+00  0.00000000E+00  0.00000000E+00
  0.00000000E+00  0.00000000E+00  0.00000000E+00
  0.00000000E+00  0.00000000E+00  0.00000000E+00
  0.00000000E+00  0.00000000E+00  0.00000000E+00
  0.00000000E+00  0.00000000E+00  0.00000000E+00
  0.00000000E+00  0.00000000E+00  0.00000000E+00
  0.00000000E+00  0.00000000E+00  0.00000000E+00
  0.00000000E+00  0.00000000E+00  0.00000000E+00
  0.00000000E+00  0.00000000E+00  0.00000000E+00
  0.00000000E+00  0.00000000E+00  0.00000000E+00
  0.00000000E+00  0.00000000E+00  0.00000000E+00
  0.00000000E+00  0.00000000E+00  0.00000000E+00
  0.00000000E+00  0.00000000E+00  0.00000000E+00
  0.00000000E+00  0.00000000E+00  0.00000000E+00
  0.00000000E+00  0.00000000E+00  0.00000000E+00
  0.00000000E+00  0.00000000E+00  0.00000000E+00
  0.00000000E+00  0.00000000E+00  0.00000000E+00
  0.00000000E+00  0.00000000E+00  0.00000000E+00
  0.00000000E+00  0.00000000E+00  0.00000000E+00
  0.00000000E+00  0.00000000E+00  0.00000000E+00
  0.00000000E+00  0.00000000E+00  0.00000000E+00
  0.00000000E+00  0.00000000E+00  0.00000000E+00
  0.00000000E+00  0.00000000E+00  0.00000000E+00
  0.00000000E+00  0.00000000E+00  0.00000000E+00
  0.00000000E+00  0.00000000E+00  0.00000000E+00
  0.00000000E+00  0.00000000E+00  0.00000000E+00
  0.00000000E+00  0.00000000E+00  0.00000000E+00
  0.00000000E+00  0.00000000E+00  0.00000000E+00
  0.00000000E+00  0.00000000E+00  0.00000000E+00
  0.00000000E+00  0.00000000E+00  0.00000000E+00
  0.00000000E+00  0.00000000E+00  0.00000000E+00
  0.00000000E+00  0.00000000E+00  0.00000000E+00
  0.00000000E+00  0.00000000E+00  0.00000000E+00
  0.00000000E+00  0.00000000E+00  0.00000000E+00
  0.00000000E+00  0.00000000E+00  0.00000000E+00
  0.00000000E+00  0.00000000E+00  0.00000000E+00
  0.00000000E+00  0.00000000E+00  0.00000000E+00
  0.00000000E+00  0.00000000E+00  0.00000000E+00
  0.00000000E+00  0.00000000E+00  0.00000000E+00
  0.00000000E+00  0.00000000E+00  0.00000000E+00
  0.00000000E+00  0.00000000E+00  0.00000000E+00
  0.00000000E+00  0.00000000E+00  0.00000000E+00
  0.00000000E+00  0.00000000E+00  0.00000000E+00
  0.00000000E+00  0.00000000E+00  0.00000000E+00
  0.00000000E+00  0.00000000E+00  0.00000000E+00
  0.00000000E+00  0.00000000E+00  0.00000000E+00
  0.00000000E+00  0.00000000E+00  0.00000000E+00
  0.00000000E+00  0.00000000E+00  0.00000000E+00
  0.00000000E+00  0.00000000E+00  0.00000000E+00
  0.00000000E+00  0.00000000E+00  0.00000000E+00
  0.00000000E+00  0.00000000E+00  0.00000000E+00
  0.00000000E+00  0.00000000E+00  0.00000000E+00
  0.00000000E+00  0.00000000E+00  0.00000000E+00
  0.00000000E+00  0.00000000E+00  0.00000000E+00
  0.00000000E+00  0.00000000E+00  0.00000000E+00
