9n                                      
   1.00000000000000     
    11.6672250000000002    0.0000000000000000    0.0000000000000000
    -5.8336125000000001   10.1041132500000010    0.0000000000000000
     0.0000002500000000    0.0000002500000000   26.1140000000000008
   C    Ce   H    O 
     1    36     1    73
Selective dynamics
Direct
  0.3015449375079973  0.3669448714744681  0.4870821435439447   T   T   T
  0.2236050660507301  0.1190670819366914  0.0304000000000002   F   F   F
  0.5569383993840660  0.1190670819366914  0.0304000000000002   F   F   F
  0.8902717327174088  0.1190670819366914  0.0304000000000002   F   F   F
  0.2236050660507303  0.4524004152700197  0.0304000000000002   F   F   F
  0.2236050660507304  0.7857337486033564  0.0304000000000002   F   F   F
  0.5569383993840660  0.7857337486033564  0.0304000000000002   F   F   F
  0.5569383993840660  0.4524004152700197  0.0304000000000002   F   F   F
  0.8902717327174159  0.4524004152700197  0.0304000000000002   F   F   F
  0.8902717327173946  0.7857337486033564  0.0304000000000002   F   F   F
  0.0013784117138441  0.6746270909627221  0.1520000000000010   F   F   F
  0.0013784117138514  0.3412937576293871  0.1520000000000010   F   F   F
  0.3347117450471728  0.3412937576293871  0.1520000000000010   F   F   F
  0.3347117450471725  0.6746270909627221  0.1520000000000010   F   F   F
  0.6680450783805079  0.6746270909627221  0.1520000000000010   F   F   F
  0.6680450783805078  0.3412937576293871  0.1520000000000010   F   F   F
  0.0013784117139010  0.0079604242960514  0.1520000000000010   F   F   F
  0.3347117450471728  0.0079604242960514  0.1520000000000010   F   F   F
  0.6680450783805085  0.0079604242960514  0.1520000000000010   F   F   F
  0.7786532038136874  0.5632055150796741  0.2722832966415435   T   T   T
  0.1123921318477173  0.5627767313636742  0.2728853795964977   T   T   T
  0.7796085410786427  0.2310594516879690  0.2718645226725192   T   T   T
  0.7799997610216933  0.8971091918414682  0.2730309413126590   T   T   T
  0.4456739634221993  0.8975616858806155  0.2729491827802025   T   T   T
  0.1118895177406373  0.8957822802736271  0.2719400366849103   T   T   T
  0.4471080624407390  0.2322394251022733  0.2730429066889754   T   T   T
  0.1135920831824670  0.2306866959051806  0.2739196683684496   T   T   T
  0.4452975137101003  0.5624392600712420  0.2748796122835464   T   T   T
  0.2274268299692111  0.1084645994030690  0.3908339837233916   T   T   T
  0.8860436812020838  0.1238378636065245  0.3922286432014074   T   T   T
  0.8861335105119187  0.7774825243453335  0.3930670558931473   T   T   T
  0.2240077035369391  0.7858697660527661  0.3936784192211027   T   T   T
  0.8892010716006959  0.4505758548428151  0.3932374178807109   T   T   T
  0.5601751866186833  0.1205909685381708  0.3929158523775134   T   T   T
  0.5577555673431059  0.7882354131269543  0.3934999195300170   T   T   T
  0.2187258819580622  0.4607869478329573  0.3961935993112052   T   T   T
  0.5693130937280323  0.4597384723309263  0.3955829385892247   T   T   T
  0.9997861519430544  1.0001278486246132  0.4756677722861747   T   T   T
  0.1124850629682761  0.8968537463468564  0.0000000000000000   F   F   F
  0.1124850629682755  0.2301870796801921  0.0000000000000000   F   F   F
  0.7791517296349397  0.5635204130135278  0.0000000000000000   F   F   F
  0.4458183963016111  0.5635204130135278  0.0000000000000000   F   F   F
  0.4458183963016115  0.8968537463468564  0.0000000000000000   F   F   F
  0.7791517296349397  0.8968537463468564  0.0000000000000000   F   F   F
  0.4458183963016111  0.2301870796801921  0.0000000000000000   F   F   F
  0.7791517296349610  0.2301870796801921  0.0000000000000000   F   F   F
  0.1124850629682754  0.5635204130135278  0.0000000000000000   F   F   F
  0.0013784024665072  0.3412937508599043  0.0608000000000004   F   F   F
  0.0013784024665070  0.6746270841932116  0.0608000000000004   F   F   F
  0.6680450691331785  0.3412937508599043  0.0608000000000004   F   F   F
  0.3347117357998858  0.3412937508599043  0.0608000000000004   F   F   F
  0.3347117357998503  0.6746270841932116  0.0608000000000004   F   F   F
  0.6680450691331927  0.6746270841932116  0.0608000000000004   F   F   F
  0.0013784024665072  0.0079604175265331  0.0608000000000004   F   F   F
  0.3347117357998360  0.0079604175265331  0.0608000000000004   F   F   F
  0.6680450691331707  0.0079604175265331  0.0608000000000004   F   F   F
  0.5569384086314031  0.1190670887062098  0.1216000000000008   F   F   F
  0.8902717419647331  0.1190670887062098  0.1216000000000008   F   F   F
  0.2236050752980699  0.1190670887062098  0.1216000000000008   F   F   F
  0.2236050752980693  0.7857337553728592  0.1216000000000008   F   F   F
  0.2236050752980768  0.4524004220395458  0.1216000000000008   F   F   F
  0.5569384086314031  0.7857337553728592  0.1216000000000008   F   F   F
  0.8902717419647613  0.7857337553728592  0.1216000000000008   F   F   F
  0.8902717419647537  0.4524004220395458  0.1216000000000008   F   F   F
  0.5569384086314110  0.4524004220395458  0.1216000000000008   F   F   F
  0.1124850814629573  0.5635204265525793  0.1824000000000012   F   F   F
  0.1124850814629503  0.8968537598859008  0.1824000000000012   F   F   F
  0.4458184147963070  0.5635204265525793  0.1824000000000012   F   F   F
  0.7791517481296353  0.5635204265525793  0.1824000000000012   F   F   F
  0.7791517481296352  0.8968537598859008  0.1824000000000012   F   F   F
  0.4458184147962857  0.8968537598859008  0.1824000000000012   F   F   F
  0.1124850814629568  0.2301870932192287  0.1824000000000012   F   F   F
  0.7791517481296502  0.2301870932192287  0.1824000000000012   F   F   F
  0.4458184147962999  0.2301870932192287  0.1824000000000012   F   F   F
  0.6684178535124731  0.3413263539597836  0.2420114055279736   T   T   T
  0.0017427774421283  0.6746456623560815  0.2424590280818373   T   T   T
  0.0014958216116941  0.3413582884306393  0.2422412491760942   T   T   T
  0.6677731984383044  0.6755844891010118  0.2429300606623911   T   T   T
  0.3349770030224779  0.0078328221411541  0.2423813547631565   T   T   T
  0.3352699082216458  0.6749863116208574  0.2434943782232230   T   T   T
  0.6677476189637769  0.0078074499172836  0.2430944881119557   T   T   T
  0.0018778849834596  0.0080078036283771  0.2428384858459833   T   T   T
  0.3342775425313616  0.3407902129370732  0.2434473389021773   T   T   T
  0.5590637616618570  0.4527758766849972  0.3024599071876543   T   T   T
  0.2247855823127433  0.1165562379582064  0.3028776188685418   T   T   T
  0.8940623341430500  0.1226590223232838  0.3033416514640967   T   T   T
  0.2201357181364989  0.4494468474983374  0.3033805325255681   T   T   T
  0.8898122955075398  0.4512264282576467  0.3030039861415651   T   T   T
  0.8896970389955965  0.7848229155071651  0.3032399543257804   T   T   T
  0.2233461412566148  0.7874413426707845  0.3040169359069936   T   T   T
  0.5559285575471895  0.1225841266250972  0.3038251217064123   T   T   T
  0.5585103755914813  0.7862447635878940  0.3049128149259403   T   T   T
  0.7773901440328321  0.2264902936183820  0.3601126419503754   T   T   T
  0.7892712651910166  0.9054018825243798  0.3629401172046912   T   T   T
  0.4488838733067093  0.9020617120356197  0.3616179999270488   T   T   T
  0.7847687146796015  0.5654742498076853  0.3623486194035411   T   T   T
  0.1088727617470029  0.5669912328388801  0.3631347517198110   T   T   T
  0.1080202579521383  0.8990802198175425  0.3633558112925029   T   T   T
  0.4387153583413547  0.2298257988854019  0.3652026893569065   T   T   T
  0.4464005731817348  0.5646505905209421  0.3655290920179132   T   T   T
  0.1147299797676342  0.2171563311207950  0.3674079035628489   T   T   T
  0.6692767381732504  0.0102531145381503  0.4231709209199104   T   T   T
  0.9999168280883021  0.6770810650667632  0.4245974469200697   T   T   T
  0.3315576597346322  0.0052649068245090  0.4233747974495617   T   T   T
  0.3400528282536455  0.6933037379303614  0.4245994592936644   T   T   T
  0.6810934556420869  0.6916115070415765  0.4251843655236596   T   T   T
  0.6766441567399943  0.3332896902472994  0.4237076752421141   T   T   T
  0.9842891422268523  0.3323078329965666  0.4238103695291572   T   T   T
  0.3368323849464455  0.3241008293703478  0.4478110229390330   T   T   T
  1.0000756237993604  1.0015654989467544  0.4383764712286929   T   T   T
  0.3042729381630824  0.3565585877234691  0.5329198707029111   T   T   T
 
  0.00000000E+00  0.00000000E+00  0.00000000E+00
  0.00000000E+00  0.00000000E+00  0.00000000E+00
  0.00000000E+00  0.00000000E+00  0.00000000E+00
  0.00000000E+00  0.00000000E+00  0.00000000E+00
  0.00000000E+00  0.00000000E+00  0.00000000E+00
  0.00000000E+00  0.00000000E+00  0.00000000E+00
  0.00000000E+00  0.00000000E+00  0.00000000E+00
  0.00000000E+00  0.00000000E+00  0.00000000E+00
  0.00000000E+00  0.00000000E+00  0.00000000E+00
  0.00000000E+00  0.00000000E+00  0.00000000E+00
  0.00000000E+00  0.00000000E+00  0.00000000E+00
  0.00000000E+00  0.00000000E+00  0.00000000E+00
  0.00000000E+00  0.00000000E+00  0.00000000E+00
  0.00000000E+00  0.00000000E+00  0.00000000E+00
  0.00000000E+00  0.00000000E+00  0.00000000E+00
  0.00000000E+00  0.00000000E+00  0.00000000E+00
  0.00000000E+00  0.00000000E+00  0.00000000E+00
  0.00000000E+00  0.00000000E+00  0.00000000E+00
  0.00000000E+00  0.00000000E+00  0.00000000E+00
  0.00000000E+00  0.00000000E+00  0.00000000E+00
  0.00000000E+00  0.00000000E+00  0.00000000E+00
  0.00000000E+00  0.00000000E+00  0.00000000E+00
  0.00000000E+00  0.00000000E+00  0.00000000E+00
  0.00000000E+00  0.00000000E+00  0.00000000E+00
  0.00000000E+00  0.00000000E+00  0.00000000E+00
  0.00000000E+00  0.00000000E+00  0.00000000E+00
  0.00000000E+00  0.00000000E+00  0.00000000E+00
  0.00000000E+00  0.00000000E+00  0.00000000E+00
  0.00000000E+00  0.00000000E+00  0.00000000E+00
  0.00000000E+00  0.00000000E+00  0.00000000E+00
  0.00000000E+00  0.00000000E+00  0.00000000E+00
  0.00000000E+00  0.00000000E+00  0.00000000E+00
  0.00000000E+00  0.00000000E+00  0.00000000E+00
  0.00000000E+00  0.00000000E+00  0.00000000E+00
  0.00000000E+00  0.00000000E+00  0.00000000E+00
  0.00000000E+00  0.00000000E+00  0.00000000E+00
  0.00000000E+00  0.00000000E+00  0.00000000E+00
  0.00000000E+00  0.00000000E+00  0.00000000E+00
  0.00000000E+00  0.00000000E+00  0.00000000E+00
  0.00000000E+00  0.00000000E+00  0.00000000E+00
  0.00000000E+00  0.00000000E+00  0.00000000E+00
  0.00000000E+00  0.00000000E+00  0.00000000E+00
  0.00000000E+00  0.00000000E+00  0.00000000E+00
  0.00000000E+00  0.00000000E+00  0.00000000E+00
  0.00000000E+00  0.00000000E+00  0.00000000E+00
  0.00000000E+00  0.00000000E+00  0.00000000E+00
  0.00000000E+00  0.00000000E+00  0.00000000E+00
  0.00000000E+00  0.00000000E+00  0.00000000E+00
  0.00000000E+00  0.00000000E+00  0.00000000E+00
  0.00000000E+00  0.00000000E+00  0.00000000E+00
  0.00000000E+00  0.00000000E+00  0.00000000E+00
  0.00000000E+00  0.00000000E+00  0.00000000E+00
  0.00000000E+00  0.00000000E+00  0.00000000E+00
  0.00000000E+00  0.00000000E+00  0.00000000E+00
  0.00000000E+00  0.00000000E+00  0.00000000E+00
  0.00000000E+00  0.00000000E+00  0.00000000E+00
  0.00000000E+00  0.00000000E+00  0.00000000E+00
  0.00000000E+00  0.00000000E+00  0.00000000E+00
  0.00000000E+00  0.00000000E+00  0.00000000E+00
  0.00000000E+00  0.00000000E+00  0.00000000E+00
  0.00000000E+00  0.00000000E+00  0.00000000E+00
  0.00000000E+00  0.00000000E+00  0.00000000E+00
  0.00000000E+00  0.00000000E+00  0.00000000E+00
  0.00000000E+00  0.00000000E+00  0.00000000E+00
  0.00000000E+00  0.00000000E+00  0.00000000E+00
  0.00000000E+00  0.00000000E+00  0.00000000E+00
  0.00000000E+00  0.00000000E+00  0.00000000E+00
  0.00000000E+00  0.00000000E+00  0.00000000E+00
  0.00000000E+00  0.00000000E+00  0.00000000E+00
  0.00000000E+00  0.00000000E+00  0.00000000E+00
  0.00000000E+00  0.00000000E+00  0.00000000E+00
  0.00000000E+00  0.00000000E+00  0.00000000E+00
  0.00000000E+00  0.00000000E+00  0.00000000E+00
  0.00000000E+00  0.00000000E+00  0.00000000E+00
  0.00000000E+00  0.00000000E+00  0.00000000E+00
  0.00000000E+00  0.00000000E+00  0.00000000E+00
  0.00000000E+00  0.00000000E+00  0.00000000E+00
  0.00000000E+00  0.00000000E+00  0.00000000E+00
  0.00000000E+00  0.00000000E+00  0.00000000E+00
  0.00000000E+00  0.00000000E+00  0.00000000E+00
  0.00000000E+00  0.00000000E+00  0.00000000E+00
  0.00000000E+00  0.00000000E+00  0.00000000E+00
  0.00000000E+00  0.00000000E+00  0.00000000E+00
  0.00000000E+00  0.00000000E+00  0.00000000E+00
  0.00000000E+00  0.00000000E+00  0.00000000E+00
  0.00000000E+00  0.00000000E+00  0.00000000E+00
  0.00000000E+00  0.00000000E+00  0.00000000E+00
  0.00000000E+00  0.00000000E+00  0.00000000E+00
  0.00000000E+00  0.00000000E+00  0.00000000E+00
  0.00000000E+00  0.00000000E+00  0.00000000E+00
  0.00000000E+00  0.00000000E+00  0.00000000E+00
  0.00000000E+00  0.00000000E+00  0.00000000E+00
  0.00000000E+00  0.00000000E+00  0.00000000E+00
  0.00000000E+00  0.00000000E+00  0.00000000E+00
  0.00000000E+00  0.00000000E+00  0.00000000E+00
  0.00000000E+00  0.00000000E+00  0.00000000E+00
  0.00000000E+00  0.00000000E+00  0.00000000E+00
  0.00000000E+00  0.00000000E+00  0.00000000E+00
  0.00000000E+00  0.00000000E+00  0.00000000E+00
  0.00000000E+00  0.00000000E+00  0.00000000E+00
  0.00000000E+00  0.00000000E+00  0.00000000E+00
  0.00000000E+00  0.00000000E+00  0.00000000E+00
  0.00000000E+00  0.00000000E+00  0.00000000E+00
  0.00000000E+00  0.00000000E+00  0.00000000E+00
  0.00000000E+00  0.00000000E+00  0.00000000E+00
  0.00000000E+00  0.00000000E+00  0.00000000E+00
  0.00000000E+00  0.00000000E+00  0.00000000E+00
  0.00000000E+00  0.00000000E+00  0.00000000E+00
  0.00000000E+00  0.00000000E+00  0.00000000E+00
  0.00000000E+00  0.00000000E+00  0.00000000E+00
  0.00000000E+00  0.00000000E+00  0.00000000E+00
