4n                                      
   1.00000000000000     
     7.7781500000000001    0.0000000000000000    0.0000000000000000
    -3.8890750000000001    6.7360755000000001    0.0000000000000000
     0.0000002500000000    0.0000002500000000   26.1140000000000008
   Ce   H    O 
    16     1    31
Selective dynamics
Direct
  0.3652182995046186  0.6960534695676799  0.0304000000000002   F   F   F
  0.8652182995046190  0.6960534695676799  0.0304000000000002   F   F   F
  0.3652182995046189  0.1960534695676799  0.0304000000000002   F   F   F
  0.8652182995046190  0.1960534695676799  0.0304000000000002   F   F   F
  0.0318783179992919  0.5293934831067305  0.1520000000000010   F   F   F
  0.5318783179992863  0.5293934831067305  0.1520000000000010   F   F   F
  0.0318783179992934  0.0293934831067375  0.1520000000000010   F   F   F
  0.5318783179992863  0.0293934831067375  0.1520000000000010   F   F   F
  0.6963406140454381  0.3621903120920177  0.2724529460886357   T   T   T
  0.1976804721334346  0.8617614507125464  0.2707863807975425   T   T   T
  0.6974130294173685  0.8613429324458020  0.2741608987732860   T   T   T
  0.1976489469672041  0.3611987110964900  0.2742207736290725   T   T   T
  0.3621211320372349  0.1788653244401108  0.3925643706991094   T   T   T
  0.3542258476795605  0.7013547945253301  0.3934528457609294   T   T   T
  0.8771878678333398  0.6942866084418536  0.3917459793618031   T   T   T
  0.8546921772624028  0.2016651429461037  0.3957390038134561   T   T   T
  1.0156426080751026  1.0234138054992432  0.4801223701982032   T   T   T
  0.1985382948809331  0.3627334661829309  0.0000000000000000   F   F   F
  0.6985382948809332  0.8627334661829309  0.0000000000000000   F   F   F
  0.6985382948809332  0.3627334661829309  0.0000000000000000   F   F   F
  0.1985382948809331  0.8627334661829309  0.0000000000000000   F   F   F
  0.0318783041282683  0.5293934729524352  0.0608000000000004   F   F   F
  0.5318783041282913  0.5293934729524352  0.0608000000000004   F   F   F
  0.0318783041282772  0.0293934729524494  0.0608000000000004   F   F   F
  0.5318783041282771  0.0293934729524494  0.0608000000000004   F   F   F
  0.8652183133756423  0.6960534797219394  0.1216000000000008   F   F   F
  0.8652183133756211  0.1960534797219609  0.1216000000000008   F   F   F
  0.3652183133756211  0.1960534797219609  0.1216000000000008   F   F   F
  0.3652183133756352  0.6960534797219394  0.1216000000000008   F   F   F
  0.1985383226229575  0.8627334864915071  0.1824000000000012   F   F   F
  0.6985383226229658  0.8627334864915071  0.1824000000000012   F   F   F
  0.1985383226229597  0.3627334864914928  0.1824000000000012   F   F   F
  0.6985383226229671  0.3627334864914928  0.1824000000000012   F   F   F
  0.0304180995207641  0.5248471285738585  0.2421502021573561   T   T   T
  0.5301020761907097  0.5291216096229705  0.2431091233687948   T   T   T
  0.5347165989361981  0.0292867244203419  0.2421468974114208   T   T   T
  0.0282334174487739  0.0312090484925910  0.2425969562444210   T   T   T
  0.3618428048781162  0.1899302870265583  0.3005370853868278   T   T   T
  0.8684246902416759  0.6961780436128628  0.3003583164207452   T   T   T
  0.8617894485721912  0.1968732401446662  0.3063099599501246   T   T   T
  0.3621942780288468  0.6963735559292622  0.3023676232142383   T   T   T
  0.6879710541926255  0.3678416556803323  0.3640183911321204   T   T   T
  0.1948531199622975  0.8624269846627352  0.3630964831191683   T   T   T
  0.6990078682123692  0.8537289633455170  0.3665241108456561   T   T   T
  0.2035613168696435  0.3574246412924941  0.3668606769863929   T   T   T
  0.0151443140981282  0.5054863326478464  0.4292039663474818   T   T   T
  0.5509758442506693  0.0411423804515051  0.4294526515285800   T   T   T
  0.0243059975857365  0.0284916503824738  0.4429807159601262   T   T   T
 
  0.00000000E+00  0.00000000E+00  0.00000000E+00
  0.00000000E+00  0.00000000E+00  0.00000000E+00
  0.00000000E+00  0.00000000E+00  0.00000000E+00
  0.00000000E+00  0.00000000E+00  0.00000000E+00
  0.00000000E+00  0.00000000E+00  0.00000000E+00
  0.00000000E+00  0.00000000E+00  0.00000000E+00
  0.00000000E+00  0.00000000E+00  0.00000000E+00
  0.00000000E+00  0.00000000E+00  0.00000000E+00
  0.00000000E+00  0.00000000E+00  0.00000000E+00
  0.00000000E+00  0.00000000E+00  0.00000000E+00
  0.00000000E+00  0.00000000E+00  0.00000000E+00
  0.00000000E+00  0.00000000E+00  0.00000000E+00
  0.00000000E+00  0.00000000E+00  0.00000000E+00
  0.00000000E+00  0.00000000E+00  0.00000000E+00
  0.00000000E+00  0.00000000E+00  0.00000000E+00
  0.00000000E+00  0.00000000E+00  0.00000000E+00
  0.00000000E+00  0.00000000E+00  0.00000000E+00
  0.00000000E+00  0.00000000E+00  0.00000000E+00
  0.00000000E+00  0.00000000E+00  0.00000000E+00
  0.00000000E+00  0.00000000E+00  0.00000000E+00
  0.00000000E+00  0.00000000E+00  0.00000000E+00
  0.00000000E+00  0.00000000E+00  0.00000000E+00
  0.00000000E+00  0.00000000E+00  0.00000000E+00
  0.00000000E+00  0.00000000E+00  0.00000000E+00
  0.00000000E+00  0.00000000E+00  0.00000000E+00
  0.00000000E+00  0.00000000E+00  0.00000000E+00
  0.00000000E+00  0.00000000E+00  0.00000000E+00
  0.00000000E+00  0.00000000E+00  0.00000000E+00
  0.00000000E+00  0.00000000E+00  0.00000000E+00
  0.00000000E+00  0.00000000E+00  0.00000000E+00
  0.00000000E+00  0.00000000E+00  0.00000000E+00
  0.00000000E+00  0.00000000E+00  0.00000000E+00
  0.00000000E+00  0.00000000E+00  0.00000000E+00
  0.00000000E+00  0.00000000E+00  0.00000000E+00
  0.00000000E+00  0.00000000E+00  0.00000000E+00
  0.00000000E+00  0.00000000E+00  0.00000000E+00
  0.00000000E+00  0.00000000E+00  0.00000000E+00
  0.00000000E+00  0.00000000E+00  0.00000000E+00
  0.00000000E+00  0.00000000E+00  0.00000000E+00
  0.00000000E+00  0.00000000E+00  0.00000000E+00
  0.00000000E+00  0.00000000E+00  0.00000000E+00
  0.00000000E+00  0.00000000E+00  0.00000000E+00
  0.00000000E+00  0.00000000E+00  0.00000000E+00
  0.00000000E+00  0.00000000E+00  0.00000000E+00
  0.00000000E+00  0.00000000E+00  0.00000000E+00
  0.00000000E+00  0.00000000E+00  0.00000000E+00
  0.00000000E+00  0.00000000E+00  0.00000000E+00
  0.00000000E+00  0.00000000E+00  0.00000000E+00
