12n                                     
   1.00000000000000     
    13.4721510000000002    0.0000000000000000    0.0000000000000000
     6.7360755000000001   11.6672250000000002    0.0000000000000000
     0.0000002500000000    0.0000002500000000   26.1140000000000008
   C    Ce   H    O 
     1    48     1    97
Selective dynamics
Direct
  0.1921507285612787  0.1743821229550980  0.5228342010368755   T   T   T
  0.6763923776341521  0.8467543018640161  0.0304000000000004   F   F   F
  0.6763923776341372  0.3467543018640315  0.0304000000000004   F   F   F
  0.0097257109674793  0.1800876351973465  0.0304000000000004   F   F   F
  0.1763923776341565  0.8467543018640016  0.0304000000000004   F   F   F
  0.5097257109674815  0.1800876351973465  0.0304000000000004   F   F   F
  0.1763923776341513  0.3467543018640102  0.0304000000000004   F   F   F
  0.8430590443008157  0.0134209685306814  0.0304000000000004   F   F   F
  0.0097257109674782  0.6800876351973484  0.0304000000000004   F   F   F
  0.3430590443008157  0.5134209685306814  0.0304000000000004   F   F   F
  0.8430590443008158  0.5134209685306814  0.0304000000000004   F   F   F
  0.5097257109674802  0.6800876351973484  0.0304000000000004   F   F   F
  0.3430590443008156  0.0134209685306814  0.0304000000000004   F   F   F
  0.1763990471619572  0.6800809763474405  0.1520000000000017   F   F   F
  0.1763990471619576  0.1800809763474412  0.1520000000000017   F   F   F
  0.8430657138286219  0.8467476430141050  0.1520000000000017   F   F   F
  0.3430657138286222  0.3467476430141048  0.1520000000000017   F   F   F
  0.0097323804952936  0.5134143096807762  0.1520000000000017   F   F   F
  0.5097323804952936  0.5134143096807762  0.1520000000000017   F   F   F
  0.8430657138286293  0.3467476430140977  0.1520000000000017   F   F   F
  0.6763990471619579  0.6800809763474405  0.1520000000000017   F   F   F
  0.3430657138286080  0.8467476430141403  0.1520000000000017   F   F   F
  0.5097323804952936  0.0134143096807762  0.1520000000000017   F   F   F
  0.0097323804952935  0.0134143096807762  0.1520000000000017   F   F   F
  0.6763990471619576  0.1800809763474412  0.1520000000000017   F   F   F
  0.1762393893857011  0.5151363590340422  0.2724090383282043   T   T   T
  0.3440939373990388  0.6792899371989338  0.2722346996161087   T   T   T
  0.5098884356425598  0.8457565076545943  0.2723459550534221   T   T   T
  0.8418602822876876  0.1802261508798017  0.2725324720618714   T   T   T
  0.5092126127640939  0.3466539373865071  0.2727383747771157   T   T   T
  0.6768856104940496  0.5131464910123285  0.2727601957705003   T   T   T
  0.0100650468853386  0.3473417374001705  0.2743611271574499   T   T   T
  0.6743347663449155  0.0131912123312141  0.2721976451430282   T   T   T
  0.1757895999489945  0.0138888583971733  0.2746731444295101   T   T   T
  0.8425176442574066  0.6812488572559821  0.2730670872620191   T   T   T
  0.3412123456778513  0.1807640776355379  0.2745801914834815   T   T   T
  0.0086909742546913  0.8481107416036594  0.2735156247665079   T   T   T
  0.6731561424616070  0.3492139439158051  0.3935289038865445   T   T   T
  0.5126586158020366  0.6753689894058350  0.3934843888915731   T   T   T
  0.9937579641254517  0.1865311706651578  0.3929760682144895   T   T   T
  0.6765233361196480  0.8461093604670652  0.3938337930998911   T   T   T
  0.8407849695250459  0.5172332382683036  0.3944784153635577   T   T   T
  0.1753657605779321  0.3645081052928804  0.3933618730642726   T   T   T
  0.8309901462299736  0.0141865078234331  0.3923613505258003   T   T   T
  0.3467841681472288  0.5124924920820186  0.3932915763549802   T   T   T
  0.3565545509590636 -0.0014613245961152  0.3934076667848222   T   T   T
  0.0064627304133431  0.6857997171190461  0.3939556394121216   T   T   T
  0.5072280273541446  0.1806598399921510  0.3942491910642363   T   T   T
  0.1854761231733874  0.8376588696264690  0.3935462430320951   T   T   T
  1.0002539321844217  1.0006291878281846  0.4775670388117386   T   T   T
  0.3430723769188816  0.6800742999098004  0.0000000000000000   F   F   F
  0.1764057102522114  0.0134076332431406  0.0000000000000000   F   F   F
  0.8430723769188737  0.6800742999098075  0.0000000000000000   F   F   F
  0.1764057102522115  0.5134076332431408  0.0000000000000000   F   F   F
  0.3430723769188757  0.1800742999098051  0.0000000000000000   F   F   F
  0.0097390435855459  0.8467409665764792  0.0000000000000000   F   F   F
  0.5097390435855473  0.3467409665764763  0.0000000000000000   F   F   F
  0.5097390435855458  0.8467409665764792  0.0000000000000000   F   F   F
  0.8430723769188685  0.1800742999098264  0.0000000000000000   F   F   F
  0.6764057102522115  0.0134076332431406  0.0000000000000000   F   F   F
  0.6764057102522116  0.5134076332431408  0.0000000000000000   F   F   F
  0.0097390435855473  0.3467409665764763  0.0000000000000000   F   F   F
  0.1763990450161027  0.6800809704848709  0.0608000000000007   F   F   F
  0.0097323783494175  0.5134143038182116  0.0608000000000007   F   F   F
  0.1763990450160831  0.1800809704848803  0.0608000000000007   F   F   F
  0.8430657116827541  0.8467476371515454  0.0608000000000007   F   F   F
  0.3430657116827759  0.3467476371515306  0.0608000000000007   F   F   F
  0.3430657116827758  0.8467476371515307  0.0608000000000007   F   F   F
  0.5097323783494366  0.5134143038181977  0.0608000000000007   F   F   F
  0.8430657116827758  0.3467476371515306  0.0608000000000007   F   F   F
  0.6763990450161009  0.6800809704848709  0.0608000000000007   F   F   F
  0.6763990450161045  0.1800809704848661  0.0608000000000007   F   F   F
  0.5097323783494404  0.0134143038181947  0.0608000000000007   F   F   F
  0.0097323783494403  0.0134143038182018  0.0608000000000007   F   F   F
  0.1763923797799973  0.3467543077265990  0.1216000000000015   F   F   F
  0.8430590464466690  0.5134209743932558  0.1216000000000015   F   F   F
  0.6763923797799691  0.3467543077266560  0.1216000000000015   F   F   F
  0.8430590464466690  0.0134209743932558  0.1216000000000015   F   F   F
  0.0097257131133336  0.1800876410599203  0.1216000000000015   F   F   F
  0.6763923797799958  0.8467543077265964  0.1216000000000015   F   F   F
  0.1763923797799810  0.8467543077266030  0.1216000000000015   F   F   F
  0.0097257131133173  0.6800876410599486  0.1216000000000015   F   F   F
  0.3430590464466262  0.0134209743933340  0.1216000000000015   F   F   F
  0.5097257131133119  0.1800876410599344  0.1216000000000015   F   F   F
  0.5097257131133262  0.6800876410599344  0.1216000000000015   F   F   F
  0.3430590464466405  0.5134209743932772  0.1216000000000015   F   F   F
  0.3430723812105811  0.6800743116349635  0.1824000000000020   F   F   F
  0.3430723812105527  0.1800743116350115  0.1824000000000020   F   F   F
  0.0097390478772240  0.8467409783016778  0.1824000000000020   F   F   F
  0.1764057145438967  0.5134076449683250  0.1824000000000020   F   F   F
  0.5097390478772449  0.3467409783016407  0.1824000000000020   F   F   F
  0.6764057145439162  0.5134076449682988  0.1824000000000020   F   F   F
  0.5097390478772306  0.8467409783016565  0.1824000000000020   F   F   F
  0.1764057145439111  0.0134076449683036  0.1824000000000020   F   F   F
  0.8430723812105748  0.6800743116349706  0.1824000000000020   F   F   F
  0.8430723812105749  0.1800743116349831  0.1824000000000020   F   F   F
  0.0097390478772461  0.3467409783016407  0.1824000000000020   F   F   F
  0.6764057145439111  0.0134076449683036  0.1824000000000020   F   F   F
  0.1756796189055235  0.6813074190034532  0.2427719646949162   T   T   T
  0.5106827096530974  0.5125390331118348  0.2423912342647726   T   T   T
  0.3420202996043093  0.8465177414908760  0.2423732639369625   T   T   T
  0.0082448198019314  0.5156347469111832  0.2428892958195493   T   T   T
  0.8426408444139388  0.3479646863756587  0.2425711798276648   T   T   T
  0.3436589300237983  0.3464461217509541  0.2424994916792905   T   T   T
  0.5086603574816684  0.0142859193092171  0.2425016664265237   T   T   T
  0.6749689695298791  0.1803967339605438  0.2426748665755998   T   T   T
  0.0097870064814531  0.0124963492785659  0.2433087351253767   T   T   T
  0.6775837860603410  0.6789989457219828  0.2427686682733342   T   T   T
  0.1759013999562175  0.1802752322664737  0.2440375378124420   T   T   T
  0.8427976445865716  0.8468650134469385  0.2423758417313535   T   T   T
  0.1756285717720061  0.3511523092885545  0.3020074847590450   T   T   T
  0.6749160702593143  0.8479869752588159  0.3028390003173025   T   T   T
  0.0061689417674375  0.1815302915873460  0.3022392556984139   T   T   T
  0.8403520180002515  0.0131228988057907  0.3030327282771148   T   T   T
  0.3443295370345127  0.5121128730895924  0.3027958193548846   T   T   T
  0.0078128849440264  0.6843581098493027  0.3045449026433508   T   T   T
  0.5089614379336707  0.6800658393292195  0.3028029394612996   T   T   T
  0.1782716757559379  0.8464073833057748  0.3048139896674470   T   T   T
  0.3440030611459753  0.0102184610927988  0.3026066407223597   T   T   T
  0.6784837395803363  0.3457081797181586  0.3037662102396733   T   T   T
  0.8453616285641596  0.5119286306979456  0.3053148384538513   T   T   T
  0.5057942430449309  0.1806781414580450  0.3048958665716250   T   T   T
  0.5118125258124460  0.3469686722588668  0.3617793165244306   T   T   T
  0.3459105587399070  0.6755818362093405  0.3615997418530728   T   T   T
  0.1760635163419410  0.5232913679509877  0.3625240136574194   T   T   T
  0.8396105793984575  0.1746201969285566  0.3639866640128168   T   T   T
  0.5163603736018212  0.8390299654541652  0.3627441470433463   T   T   T
  0.6740264775577404  0.5153322056828513  0.3616150209532665   T   T   T
  0.0134966625992769  0.3440744019516330  0.3677482301716659   T   T   T
  0.6745023081795906  0.0133371556966363  0.3613775102504080   T   T   T
  0.3368908470542041  0.1806288699890842  0.3673019132785355   T   T   T
  0.0074901082226544  0.8554400496404725  0.3644713744619070   T   T   T
  0.1715973324320957  0.0150427123393270  0.3686156221671975   T   T   T
  0.8396806601519305  0.6847183852644655  0.3620504695804400   T   T   T
  0.8267595813076023  0.3578967767949280  0.4254854509792603   T   T   T
  0.6723643861743647  0.1772339850241215  0.4244654923158628   T   T   T
  0.5112881175710866  0.5117418598102311  0.4244020720302814   T   T   T
  0.3485845238128850  0.8290347203462447  0.4260961779470113   T   T   T
  0.1773318379239038  0.6849620049189310  0.4247158955907341   T   T   T
  0.5225226095331160  0.0085781586943417  0.4261512066410408   T   T   T
  0.3530615266272447  0.3518892816244774  0.4257824252369138   T   T   T
 -0.0014215771664132  0.5329695555195938  0.4257815594430645   T   T   T
  0.0038532501299857  0.0087122036133822  0.4406942284941117   T   T   T
  0.6794786728997968  0.6764378764625192  0.4249835222921295   T   T   T
  0.1811491585973565  0.1807401163039788  0.4776485653258914   T   T   T
  0.8398252192856420  0.8504711084572527  0.4243463303598579   T   T   T
  0.2028378865786341  0.1678147229416609  0.5672571674313376   T   T   T
 
  0.00000000E+00  0.00000000E+00  0.00000000E+00
  0.00000000E+00  0.00000000E+00  0.00000000E+00
  0.00000000E+00  0.00000000E+00  0.00000000E+00
  0.00000000E+00  0.00000000E+00  0.00000000E+00
  0.00000000E+00  0.00000000E+00  0.00000000E+00
  0.00000000E+00  0.00000000E+00  0.00000000E+00
  0.00000000E+00  0.00000000E+00  0.00000000E+00
  0.00000000E+00  0.00000000E+00  0.00000000E+00
  0.00000000E+00  0.00000000E+00  0.00000000E+00
  0.00000000E+00  0.00000000E+00  0.00000000E+00
  0.00000000E+00  0.00000000E+00  0.00000000E+00
  0.00000000E+00  0.00000000E+00  0.00000000E+00
  0.00000000E+00  0.00000000E+00  0.00000000E+00
  0.00000000E+00  0.00000000E+00  0.00000000E+00
  0.00000000E+00  0.00000000E+00  0.00000000E+00
  0.00000000E+00  0.00000000E+00  0.00000000E+00
  0.00000000E+00  0.00000000E+00  0.00000000E+00
  0.00000000E+00  0.00000000E+00  0.00000000E+00
  0.00000000E+00  0.00000000E+00  0.00000000E+00
  0.00000000E+00  0.00000000E+00  0.00000000E+00
  0.00000000E+00  0.00000000E+00  0.00000000E+00
  0.00000000E+00  0.00000000E+00  0.00000000E+00
  0.00000000E+00  0.00000000E+00  0.00000000E+00
  0.00000000E+00  0.00000000E+00  0.00000000E+00
  0.00000000E+00  0.00000000E+00  0.00000000E+00
  0.00000000E+00  0.00000000E+00  0.00000000E+00
  0.00000000E+00  0.00000000E+00  0.00000000E+00
  0.00000000E+00  0.00000000E+00  0.00000000E+00
  0.00000000E+00  0.00000000E+00  0.00000000E+00
  0.00000000E+00  0.00000000E+00  0.00000000E+00
  0.00000000E+00  0.00000000E+00  0.00000000E+00
  0.00000000E+00  0.00000000E+00  0.00000000E+00
  0.00000000E+00  0.00000000E+00  0.00000000E+00
  0.00000000E+00  0.00000000E+00  0.00000000E+00
  0.00000000E+00  0.00000000E+00  0.00000000E+00
  0.00000000E+00  0.00000000E+00  0.00000000E+00
  0.00000000E+00  0.00000000E+00  0.00000000E+00
  0.00000000E+00  0.00000000E+00  0.00000000E+00
  0.00000000E+00  0.00000000E+00  0.00000000E+00
  0.00000000E+00  0.00000000E+00  0.00000000E+00
  0.00000000E+00  0.00000000E+00  0.00000000E+00
  0.00000000E+00  0.00000000E+00  0.00000000E+00
  0.00000000E+00  0.00000000E+00  0.00000000E+00
  0.00000000E+00  0.00000000E+00  0.00000000E+00
  0.00000000E+00  0.00000000E+00  0.00000000E+00
  0.00000000E+00  0.00000000E+00  0.00000000E+00
  0.00000000E+00  0.00000000E+00  0.00000000E+00
  0.00000000E+00  0.00000000E+00  0.00000000E+00
  0.00000000E+00  0.00000000E+00  0.00000000E+00
  0.00000000E+00  0.00000000E+00  0.00000000E+00
  0.00000000E+00  0.00000000E+00  0.00000000E+00
  0.00000000E+00  0.00000000E+00  0.00000000E+00
  0.00000000E+00  0.00000000E+00  0.00000000E+00
  0.00000000E+00  0.00000000E+00  0.00000000E+00
  0.00000000E+00  0.00000000E+00  0.00000000E+00
  0.00000000E+00  0.00000000E+00  0.00000000E+00
  0.00000000E+00  0.00000000E+00  0.00000000E+00
  0.00000000E+00  0.00000000E+00  0.00000000E+00
  0.00000000E+00  0.00000000E+00  0.00000000E+00
  0.00000000E+00  0.00000000E+00  0.00000000E+00
  0.00000000E+00  0.00000000E+00  0.00000000E+00
  0.00000000E+00  0.00000000E+00  0.00000000E+00
  0.00000000E+00  0.00000000E+00  0.00000000E+00
  0.00000000E+00  0.00000000E+00  0.00000000E+00
  0.00000000E+00  0.00000000E+00  0.00000000E+00
  0.00000000E+00  0.00000000E+00  0.00000000E+00
  0.00000000E+00  0.00000000E+00  0.00000000E+00
  0.00000000E+00  0.00000000E+00  0.00000000E+00
  0.00000000E+00  0.00000000E+00  0.00000000E+00
  0.00000000E+00  0.00000000E+00  0.00000000E+00
  0.00000000E+00  0.00000000E+00  0.00000000E+00
  0.00000000E+00  0.00000000E+00  0.00000000E+00
  0.00000000E+00  0.00000000E+00  0.00000000E+00
  0.00000000E+00  0.00000000E+00  0.00000000E+00
  0.00000000E+00  0.00000000E+00  0.00000000E+00
  0.00000000E+00  0.00000000E+00  0.00000000E+00
  0.00000000E+00  0.00000000E+00  0.00000000E+00
  0.00000000E+00  0.00000000E+00  0.00000000E+00
  0.00000000E+00  0.00000000E+00  0.00000000E+00
  0.00000000E+00  0.00000000E+00  0.00000000E+00
  0.00000000E+00  0.00000000E+00  0.00000000E+00
  0.00000000E+00  0.00000000E+00  0.00000000E+00
  0.00000000E+00  0.00000000E+00  0.00000000E+00
  0.00000000E+00  0.00000000E+00  0.00000000E+00
  0.00000000E+00  0.00000000E+00  0.00000000E+00
  0.00000000E+00  0.00000000E+00  0.00000000E+00
  0.00000000E+00  0.00000000E+00  0.00000000E+00
  0.00000000E+00  0.00000000E+00  0.00000000E+00
  0.00000000E+00  0.00000000E+00  0.00000000E+00
  0.00000000E+00  0.00000000E+00  0.00000000E+00
  0.00000000E+00  0.00000000E+00  0.00000000E+00
  0.00000000E+00  0.00000000E+00  0.00000000E+00
  0.00000000E+00  0.00000000E+00  0.00000000E+00
  0.00000000E+00  0.00000000E+00  0.00000000E+00
  0.00000000E+00  0.00000000E+00  0.00000000E+00
  0.00000000E+00  0.00000000E+00  0.00000000E+00
  0.00000000E+00  0.00000000E+00  0.00000000E+00
  0.00000000E+00  0.00000000E+00  0.00000000E+00
  0.00000000E+00  0.00000000E+00  0.00000000E+00
  0.00000000E+00  0.00000000E+00  0.00000000E+00
  0.00000000E+00  0.00000000E+00  0.00000000E+00
  0.00000000E+00  0.00000000E+00  0.00000000E+00
  0.00000000E+00  0.00000000E+00  0.00000000E+00
  0.00000000E+00  0.00000000E+00  0.00000000E+00
  0.00000000E+00  0.00000000E+00  0.00000000E+00
  0.00000000E+00  0.00000000E+00  0.00000000E+00
  0.00000000E+00  0.00000000E+00  0.00000000E+00
  0.00000000E+00  0.00000000E+00  0.00000000E+00
  0.00000000E+00  0.00000000E+00  0.00000000E+00
  0.00000000E+00  0.00000000E+00  0.00000000E+00
  0.00000000E+00  0.00000000E+00  0.00000000E+00
  0.00000000E+00  0.00000000E+00  0.00000000E+00
  0.00000000E+00  0.00000000E+00  0.00000000E+00
  0.00000000E+00  0.00000000E+00  0.00000000E+00
  0.00000000E+00  0.00000000E+00  0.00000000E+00
  0.00000000E+00  0.00000000E+00  0.00000000E+00
  0.00000000E+00  0.00000000E+00  0.00000000E+00
  0.00000000E+00  0.00000000E+00  0.00000000E+00
  0.00000000E+00  0.00000000E+00  0.00000000E+00
  0.00000000E+00  0.00000000E+00  0.00000000E+00
  0.00000000E+00  0.00000000E+00  0.00000000E+00
  0.00000000E+00  0.00000000E+00  0.00000000E+00
  0.00000000E+00  0.00000000E+00  0.00000000E+00
  0.00000000E+00  0.00000000E+00  0.00000000E+00
  0.00000000E+00  0.00000000E+00  0.00000000E+00
  0.00000000E+00  0.00000000E+00  0.00000000E+00
  0.00000000E+00  0.00000000E+00  0.00000000E+00
  0.00000000E+00  0.00000000E+00  0.00000000E+00
  0.00000000E+00  0.00000000E+00  0.00000000E+00
  0.00000000E+00  0.00000000E+00  0.00000000E+00
  0.00000000E+00  0.00000000E+00  0.00000000E+00
  0.00000000E+00  0.00000000E+00  0.00000000E+00
  0.00000000E+00  0.00000000E+00  0.00000000E+00
  0.00000000E+00  0.00000000E+00  0.00000000E+00
  0.00000000E+00  0.00000000E+00  0.00000000E+00
  0.00000000E+00  0.00000000E+00  0.00000000E+00
  0.00000000E+00  0.00000000E+00  0.00000000E+00
  0.00000000E+00  0.00000000E+00  0.00000000E+00
  0.00000000E+00  0.00000000E+00  0.00000000E+00
  0.00000000E+00  0.00000000E+00  0.00000000E+00
  0.00000000E+00  0.00000000E+00  0.00000000E+00
  0.00000000E+00  0.00000000E+00  0.00000000E+00
  0.00000000E+00  0.00000000E+00  0.00000000E+00
  0.00000000E+00  0.00000000E+00  0.00000000E+00
  0.00000000E+00  0.00000000E+00  0.00000000E+00
  0.00000000E+00  0.00000000E+00  0.00000000E+00
  0.00000000E+00  0.00000000E+00  0.00000000E+00
