cot16n                                  
   1.00000000000000     
    15.5563000000000002    0.0000000000000000    0.0000000000000000
    -7.7781500000000001   13.4721510000000002    0.0000000000000000
     0.0000010000000000    0.0000010000000000   26.1140000000000008
   C    Ce   H    O 
     1    64     1   129
Selective dynamics
Direct
  0.4601700061900009  0.5373947525463709  0.4801151276372957   T   T   T
  0.4166700000000034  0.3333299999999965  0.0304000000000002   F   F   F
  0.6666700000000034  0.3333299999999965  0.0304000000000002   F   F   F
  0.6666700000000035  1.0833299999999966  0.0304000000000002   F   F   F
  0.9166700000000034  1.0833299999999966  0.0304000000000002   F   F   F
 -0.0833300000001185  0.3333299999999965  0.0304000000000002   F   F   F
  0.1666699999998197  0.8333299999999966  0.0304000000000002   F   F   F
  0.1666700000000034  0.5833299999999966  0.0304000000000002   F   F   F
  0.4166700000000034  0.5833299999999966  0.0304000000000002   F   F   F
  0.4166700000000034  0.8333299999999966  0.0304000000000002   F   F   F
  0.6666700000000034  0.8333299999999966  0.0304000000000002   F   F   F
  0.6666700000000034  0.5833299999999966  0.0304000000000002   F   F   F
  0.9166700000000035  0.5833299999999966  0.0304000000000002   F   F   F
  0.9166700000000034  0.8333299999999966  0.0304000000000002   F   F   F
  0.1666700000000034  0.3333299999999965  0.0304000000000002   F   F   F
  0.1666700000000035  0.0833299999999966  0.0304000000000002   F   F   F
  0.4166700000000035  0.0833299999999966  0.0304000000000002   F   F   F
  0.0000000000000000  0.5000000000000000  0.1520000000000010   F   F   F
  1.0000000000000000  0.7500000000000000  0.1520000000000010   F   F   F
  0.2500000000000000  0.7500000000000000  0.1520000000000010   F   F   F
  0.2500000000000006  0.5000000000000000  0.1520000000000010   F   F   F
  0.5000000000000000  0.5000000000000000  0.1520000000000010   F   F   F
  0.5000000000000000  0.7500000000000000  0.1520000000000010   F   F   F
  0.7500000000000000  0.7500000000000000  0.1520000000000010   F   F   F
  0.7500000000000000  0.5000000000000000  0.1520000000000010   F   F   F
  1.0000000000000000  0.9999999999999999  0.1520000000000010   F   F   F
 -0.0000000000001186  0.2500000000000001  0.1520000000000010   F   F   F
  0.2500000000000001  0.2500000000000001  0.1520000000000010   F   F   F
  0.2500000000003155  0.0000000000000000  0.1520000000000010   F   F   F
  0.5000000000000000  0.9999999999999999  0.1520000000000010   F   F   F
  0.5000000000000000  0.2500000000000001  0.1520000000000010   F   F   F
  0.7500000000000000  0.2500000000000001  0.1520000000000010   F   F   F
  0.7500000000000000  0.9999999999999999  0.1520000000000010   F   F   F
  0.0830910747176208  0.4171810110957482  0.2719452873723359   T   T   T
  0.8325182419986652  0.6663039406860622  0.2733450794028461   T   T   T
  1.0826475006647927  0.9155484386277080  0.2722596438013510   T   T   T
  0.3332090853927373  0.6666394748423967  0.2728458170177058   T   T   T
  0.3332006984420143  0.1667231194369654  0.2728615547440701   T   T   T
  0.8335304317997638  0.4167384115011403  0.2723750236728672   T   T   T
 -0.1661448157551692  0.1670571167653182  0.2725635042176159   T   T   T
  0.0829960812496600  0.6666597252232543  0.2725655332031481   T   T   T
  0.5836117878378849  0.1672365174735936  0.2728756490756616   T   T   T
  0.8335369678596636  0.9165259482053295  0.2727845767200474   T   T   T
  0.5833591582311815  0.9166158424331164  0.2730392515259922   T   T   T
  0.3330490041328149  0.9165620097433212  0.2729894165449620   T   T   T
  0.0841194342748273  0.1669735698477223  0.2729693225190996   T   T   T
  0.5844974545040360  0.4179227342697291  0.2731405235113208   T   T   T
  0.3335098269419696  0.4168923205643958  0.2736404610441711   T   T   T
  0.5830711957258882  0.6657572495233338  0.2742534690469657   T   T   T
  0.4226363617949695  0.3316688341948119  0.3920978031340647   T   T   T
 -0.0838807870029499  0.3335301499357044  0.3922436377195249   T   T   T
  0.6673767769481267  1.0837991044894923  0.3925925692498035   T   T   T
 -0.0828677117927430  0.0838671280607072  0.3925328159471361   T   T   T
  0.1622631727180791  0.0748375970512833  0.3922058011686824   T   T   T
  0.1634700014455469  0.3378710969677527  0.3917290647606247   T   T   T
  0.1652556077261375  0.5846635840057710  0.3927068756614156   T   T   T
  0.9156757647112305  0.8328254394604669  0.3930269399401362   T   T   T
  0.4168213256205439  0.8345724159746202  0.3931295363427674   T   T   T
  0.4169921384185928  0.0825942798107034  0.3933162993067215   T   T   T
  0.9172263048363487  0.5824743584288551  0.3932518638360948   T   T   T
  0.6700600125066427  0.3338698854508369  0.3930522094772498   T   T   T
  0.6673292711925390  0.8345473916892796  0.3932913421804713   T   T   T
  0.1652351063034972  0.8310906683221904  0.3934742293214549   T   T   T
  0.4140030432647289  0.5867765642681175  0.3943596101708109   T   T   T
  0.6713745574613017  0.5855171174807158  0.3965251146011028   T   T   T
  0.2510507877741809  0.2505912355041190  0.4746981324371246   T   T   T
  0.0833299999999966  0.6666700000000034  0.0000000000000000   F   F   F
  1.0833299999999957  0.9166700000000034  0.0000000000000000   F   F   F
  0.3333299999999966  0.9166700000000034  0.0000000000000000   F   F   F
  0.3333299999999966  0.4166700000000034  0.0000000000000000   F   F   F
  0.8333299999999966  0.6666700000000034  0.0000000000000000   F   F   F
  0.5833299999999966  0.6666700000000034  0.0000000000000000   F   F   F
  0.5833299999999966  0.9166700000000034  0.0000000000000000   F   F   F
  0.8333299999999966  0.9166700000000034  0.0000000000000000   F   F   F
  0.3333299999999966  0.1666700000000034  0.0000000000000000   F   F   F
  0.8333299999999985  1.1666700000000034  0.0000000000000000   F   F   F
  0.5833299999999966  0.1666700000000034  0.0000000000000000   F   F   F
  0.5833299999999966  0.4166700000000034  0.0000000000000000   F   F   F
  0.0833299999999966  0.1666700000000034  0.0000000000000000   F   F   F
  0.8333299999999967  0.4166700000000034  0.0000000000000000   F   F   F
  0.3333299999999966  0.6666700000000034  0.0000000000000000   F   F   F
  0.0833299999999966  0.4166700000000034  0.0000000000000000   F   F   F
  0.2499999999999999  0.4999999999999997  0.0608000000000004   F   F   F
 -0.0000000000000001  0.4999999999999997  0.0608000000000004   F   F   F
  0.9999999999999930  0.7500000000000001  0.0608000000000004   F   F   F
  0.2500000000000000  0.7500000000000001  0.0608000000000004   F   F   F
  0.7499999999999999  0.4999999999999997  0.0608000000000004   F   F   F
  0.5000000000000001  0.4999999999999997  0.0608000000000004   F   F   F
  0.5000000000000001  0.7500000000000001  0.0608000000000004   F   F   F
  0.7500000000000001  0.7500000000000001  0.0608000000000004   F   F   F
  0.2500000000000000  0.0000000000000000  0.0608000000000004   F   F   F
  1.0000000000000000  1.0000000000000000  0.0608000000000004   F   F   F
  0.0000000000000000  0.2500000000000000  0.0608000000000004   F   F   F
  0.2500000000000000  0.2500000000000000  0.0608000000000004   F   F   F
  0.7500000000000000  1.0000000000000000  0.0608000000000004   F   F   F
  0.5000000000000000  1.0000000000000000  0.0608000000000004   F   F   F
  0.5000000000000000  0.2500000000000000  0.0608000000000004   F   F   F
  0.7500000000000000  0.2500000000000000  0.0608000000000004   F   F   F
  0.6666700000000034  0.3333299999999966  0.1216000000000008   F   F   F
 -0.0833300000001145  0.3333299999999966  0.1216000000000008   F   F   F
  0.9166700000000056  1.0833299999999966  0.1216000000000008   F   F   F
  0.6666700000000017  1.0833299999999966  0.1216000000000008   F   F   F
  0.4166700000000034  0.3333299999999966  0.1216000000000008   F   F   F
  0.1666700000000033  0.8333299999999964  0.1216000000000008   F   F   F
  0.4166700000000046  0.8333299999999964  0.1216000000000008   F   F   F
  0.4166700000000046  0.5833299999999965  0.1216000000000008   F   F   F
  0.4166700000004112  0.0833299999999966  0.1216000000000008   F   F   F
  0.1666700000000041  0.5833299999999965  0.1216000000000008   F   F   F
  0.6666700000000034  0.8333299999999964  0.1216000000000008   F   F   F
  0.1666700000000041  0.0833299999999966  0.1216000000000008   F   F   F
  0.9166700000000034  0.8333299999999964  0.1216000000000008   F   F   F
  0.9166700000000034  0.5833299999999965  0.1216000000000008   F   F   F
  0.6666700000000056  0.5833299999999965  0.1216000000000008   F   F   F
  0.1666700000000034  0.3333299999999966  0.1216000000000008   F   F   F
  0.0833299999999967  0.6666700000000036  0.1824000000000012   F   F   F
  0.3333299999999975  0.6666700000000036  0.1824000000000012   F   F   F
  0.3333299999999966  0.9166700000000034  0.1824000000000012   F   F   F
  1.0833299999999964  0.9166700000000034  0.1824000000000012   F   F   F
  0.5833299999999969  0.6666700000000036  0.1824000000000012   F   F   F
  0.8333299999999985  0.6666700000000036  0.1824000000000012   F   F   F
  0.8333299999999967  0.9166700000000034  0.1824000000000012   F   F   F
  0.5833299999999966  0.9166700000000034  0.1824000000000012   F   F   F
  0.0833299999999966  0.1666700000000034  0.1824000000000012   F   F   F
  0.3333299999999975  0.1666700000000034  0.1824000000000012   F   F   F
  0.3333299999999975  0.4166700000000034  0.1824000000000012   F   F   F
  0.0833299999999966  0.4166700000000034  0.1824000000000012   F   F   F
  0.5833299999999966  0.1666700000000034  0.1824000000000012   F   F   F
  0.8333299999999985  1.1666700000000036  0.1824000000000012   F   F   F
  0.8333299999999967  0.4166700000000034  0.1824000000000012   F   F   F
  0.5833299999999967  0.4166700000000034  0.1824000000000012   F   F   F
  0.0001998271551874  0.5002067868039654  0.2421316529962201   T   T   T
  0.9999787828168237  0.7499620617339863  0.2426127938786375   T   T   T
  0.0001808668196391  0.0004130897928626  0.2424075101977048   T   T   T
  0.7500832425768140  0.4997632031859859  0.2425213293798415   T   T   T
  0.2503857267590743  0.0000889883773410  0.2426230422285102   T   T   T
  0.2502066121537616  0.7503488461294956  0.2426660902933147   T   T   T
  0.2498974272397581  0.5000378296715317  0.2424765051532816   T   T   T
  0.0005951461637744  0.2498584219843780  0.2422643558967021   T   T   T
  0.7497604447469666  0.2497813915201237  0.2424607841247288   T   T   T
  0.4998702721744417  0.2496040022812403  0.2427755831472641   T   T   T
  0.7498643020607155  0.7506315590815688  0.2428567712593924   T   T   T
  0.4996132574587802  1.0005891757918088  0.2429758348389990   T   T   T
  0.4999678332634421  0.7497296636532527  0.2432009519794384   T   T   T
  0.7505772805224618  1.0000095805607769  0.2430686671194690   T   T   T
  0.2499460134952882  0.2498342351198078  0.2433084873220314   T   T   T
  0.4991300439475084  0.4998433516239109  0.2431303394325685   T   T   T
  0.6671573619507976  0.5838119427300835  0.3027378625256937   T   T   T
  0.4178389536367116  0.3332595001029083  0.3033839556368865   T   T   T
 -0.0830415911855097  0.3326339169874580  0.3026012943885116   T   T   T
  0.6673544298838577  1.0840079776047784  0.3033101769907602   T   T   T
  0.1663674986121500  0.5834917081434038  0.3032419497034176   T   T   T
  0.4138295619506936  0.5813610732995470  0.3041059829318337   T   T   T
  0.9165842525091681  0.5826175108400719  0.3032641689911741   T   T   T
  0.9164374727199149  0.8337281916152449  0.3032912230822024   T   T   T
  0.1655449070999400  0.0808378506771744  0.3033784314582069   T   T   T
  0.4169114670146760  0.8338248690384672  0.3036034551785785   T   T   T
  0.1665593837727779  0.8330623607376475  0.3036236305837467   T   T   T
 -0.0797851741605116  0.0860141470390990  0.3041242811845454   T   T   T
  0.4155861515102205  0.0845905751857245  0.3047596834017318   T   T   T
  0.1659707722664114  0.3347305973521099  0.3034510164065852   T   T   T
  0.6674257486058282  0.3338025215929301  0.3036190279009263   T   T   T
  0.6664559150634787  0.8326054852108219  0.3044695229920909   T   T   T
  0.0815145834192482  0.4168917277763790  0.3615641546239519   T   T   T
  0.8351209612247892  0.4148221198876913  0.3611706128248051   T   T   T
  0.5841886016632569  0.1666540083373045  0.3623789251232630   T   T   T
  0.8354621174049010  0.9204614894140859  0.3614872696857259   T   T   T
  0.5844171933603379  0.9191480481091493  0.3622901537609687   T   T   T
  1.0820758737718488  0.9148581015118483  0.3621959911560668   T   T   T
 -0.1658795216755557  0.1670037812633851  0.3621071674266708   T   T   T
  0.8383431883816087  0.6690020303916487  0.3629485378769549   T   T   T
  0.0830224586328017  0.6662703388959187  0.3621308254834733   T   T   T
  0.3317562087907874  0.6677412861855704  0.3627454162728537   T   T   T
  0.3332229270454271  0.9170215823519031  0.3627046292247996   T   T   T
  0.3288013000148721  0.1690976091859069  0.3639345733262098   T   T   T
  0.0914352322900973  0.1706889868863162  0.3638754464330752   T   T   T
  0.5823130106560397  0.4138537679184746  0.3633327219301326   T   T   T
  0.5779100455557644  0.6649621444174403  0.3646647333397330   T   T   T
  0.3303240903645981  0.4098802162523266  0.3644822263443228   T   T   T
  0.0013252424880906  0.2513611674556390  0.4221450561738085   T   T   T
  0.7520257511163073  1.0020799634861484  0.4226106671366400   T   T   T
  0.7511636872115457  0.2499051921576904  0.4228083090941484   T   T   T
  0.0016924053605752  0.0007854376934370  0.4225926153081549   T   T   T
  0.0005520441963932  0.4997480423165328  0.4227186273624798   T   T   T
  0.4994930675945017  1.0015161296251212  0.4229200453878221   T   T   T
  0.2480477742608724 -0.0006917558475680  0.4227980441519446   T   T   T
  1.0027067382957753  0.7507369718239150  0.4238562526457871   T   T   T
  0.2481165583059624  0.7501081781124765  0.4231755771853116   T   T   T
  0.4983054794585984  0.2465158943358883  0.4230140706584028   T   T   T
  0.4986266035377958  0.7549527939532200  0.4223491843125817   T   T   T
  0.7563754047955068  0.7622972833849565  0.4236482621472558   T   T   T
  0.7574997876136303  0.4936465874311371  0.4241428815463414   T   T   T
  0.2448082798790351  0.4987665715753458  0.4216463883227058   T   T   T
  0.4924200488403306  0.4871860672828316  0.4319172027589435   T   T   T
  0.2490736794517538  0.2481533049542854  0.4374228747620942   T   T   T
  0.4760584875179928  0.5188114130766002  0.5218151506414644   T   T   T
 
  0.00000000E+00  0.00000000E+00  0.00000000E+00
  0.00000000E+00  0.00000000E+00  0.00000000E+00
  0.00000000E+00  0.00000000E+00  0.00000000E+00
  0.00000000E+00  0.00000000E+00  0.00000000E+00
  0.00000000E+00  0.00000000E+00  0.00000000E+00
  0.00000000E+00  0.00000000E+00  0.00000000E+00
  0.00000000E+00  0.00000000E+00  0.00000000E+00
  0.00000000E+00  0.00000000E+00  0.00000000E+00
  0.00000000E+00  0.00000000E+00  0.00000000E+00
  0.00000000E+00  0.00000000E+00  0.00000000E+00
  0.00000000E+00  0.00000000E+00  0.00000000E+00
  0.00000000E+00  0.00000000E+00  0.00000000E+00
  0.00000000E+00  0.00000000E+00  0.00000000E+00
  0.00000000E+00  0.00000000E+00  0.00000000E+00
  0.00000000E+00  0.00000000E+00  0.00000000E+00
  0.00000000E+00  0.00000000E+00  0.00000000E+00
  0.00000000E+00  0.00000000E+00  0.00000000E+00
  0.00000000E+00  0.00000000E+00  0.00000000E+00
  0.00000000E+00  0.00000000E+00  0.00000000E+00
  0.00000000E+00  0.00000000E+00  0.00000000E+00
  0.00000000E+00  0.00000000E+00  0.00000000E+00
  0.00000000E+00  0.00000000E+00  0.00000000E+00
  0.00000000E+00  0.00000000E+00  0.00000000E+00
  0.00000000E+00  0.00000000E+00  0.00000000E+00
  0.00000000E+00  0.00000000E+00  0.00000000E+00
  0.00000000E+00  0.00000000E+00  0.00000000E+00
  0.00000000E+00  0.00000000E+00  0.00000000E+00
  0.00000000E+00  0.00000000E+00  0.00000000E+00
  0.00000000E+00  0.00000000E+00  0.00000000E+00
  0.00000000E+00  0.00000000E+00  0.00000000E+00
  0.00000000E+00  0.00000000E+00  0.00000000E+00
  0.00000000E+00  0.00000000E+00  0.00000000E+00
  0.00000000E+00  0.00000000E+00  0.00000000E+00
  0.00000000E+00  0.00000000E+00  0.00000000E+00
  0.00000000E+00  0.00000000E+00  0.00000000E+00
  0.00000000E+00  0.00000000E+00  0.00000000E+00
  0.00000000E+00  0.00000000E+00  0.00000000E+00
  0.00000000E+00  0.00000000E+00  0.00000000E+00
  0.00000000E+00  0.00000000E+00  0.00000000E+00
  0.00000000E+00  0.00000000E+00  0.00000000E+00
  0.00000000E+00  0.00000000E+00  0.00000000E+00
  0.00000000E+00  0.00000000E+00  0.00000000E+00
  0.00000000E+00  0.00000000E+00  0.00000000E+00
  0.00000000E+00  0.00000000E+00  0.00000000E+00
  0.00000000E+00  0.00000000E+00  0.00000000E+00
  0.00000000E+00  0.00000000E+00  0.00000000E+00
  0.00000000E+00  0.00000000E+00  0.00000000E+00
  0.00000000E+00  0.00000000E+00  0.00000000E+00
  0.00000000E+00  0.00000000E+00  0.00000000E+00
  0.00000000E+00  0.00000000E+00  0.00000000E+00
  0.00000000E+00  0.00000000E+00  0.00000000E+00
  0.00000000E+00  0.00000000E+00  0.00000000E+00
  0.00000000E+00  0.00000000E+00  0.00000000E+00
  0.00000000E+00  0.00000000E+00  0.00000000E+00
  0.00000000E+00  0.00000000E+00  0.00000000E+00
  0.00000000E+00  0.00000000E+00  0.00000000E+00
  0.00000000E+00  0.00000000E+00  0.00000000E+00
  0.00000000E+00  0.00000000E+00  0.00000000E+00
  0.00000000E+00  0.00000000E+00  0.00000000E+00
  0.00000000E+00  0.00000000E+00  0.00000000E+00
  0.00000000E+00  0.00000000E+00  0.00000000E+00
  0.00000000E+00  0.00000000E+00  0.00000000E+00
  0.00000000E+00  0.00000000E+00  0.00000000E+00
  0.00000000E+00  0.00000000E+00  0.00000000E+00
  0.00000000E+00  0.00000000E+00  0.00000000E+00
  0.00000000E+00  0.00000000E+00  0.00000000E+00
  0.00000000E+00  0.00000000E+00  0.00000000E+00
  0.00000000E+00  0.00000000E+00  0.00000000E+00
  0.00000000E+00  0.00000000E+00  0.00000000E+00
  0.00000000E+00  0.00000000E+00  0.00000000E+00
  0.00000000E+00  0.00000000E+00  0.00000000E+00
  0.00000000E+00  0.00000000E+00  0.00000000E+00
  0.00000000E+00  0.00000000E+00  0.00000000E+00
  0.00000000E+00  0.00000000E+00  0.00000000E+00
  0.00000000E+00  0.00000000E+00  0.00000000E+00
  0.00000000E+00  0.00000000E+00  0.00000000E+00
  0.00000000E+00  0.00000000E+00  0.00000000E+00
  0.00000000E+00  0.00000000E+00  0.00000000E+00
  0.00000000E+00  0.00000000E+00  0.00000000E+00
  0.00000000E+00  0.00000000E+00  0.00000000E+00
  0.00000000E+00  0.00000000E+00  0.00000000E+00
  0.00000000E+00  0.00000000E+00  0.00000000E+00
  0.00000000E+00  0.00000000E+00  0.00000000E+00
  0.00000000E+00  0.00000000E+00  0.00000000E+00
  0.00000000E+00  0.00000000E+00  0.00000000E+00
  0.00000000E+00  0.00000000E+00  0.00000000E+00
  0.00000000E+00  0.00000000E+00  0.00000000E+00
  0.00000000E+00  0.00000000E+00  0.00000000E+00
  0.00000000E+00  0.00000000E+00  0.00000000E+00
  0.00000000E+00  0.00000000E+00  0.00000000E+00
  0.00000000E+00  0.00000000E+00  0.00000000E+00
  0.00000000E+00  0.00000000E+00  0.00000000E+00
  0.00000000E+00  0.00000000E+00  0.00000000E+00
  0.00000000E+00  0.00000000E+00  0.00000000E+00
  0.00000000E+00  0.00000000E+00  0.00000000E+00
  0.00000000E+00  0.00000000E+00  0.00000000E+00
  0.00000000E+00  0.00000000E+00  0.00000000E+00
  0.00000000E+00  0.00000000E+00  0.00000000E+00
  0.00000000E+00  0.00000000E+00  0.00000000E+00
  0.00000000E+00  0.00000000E+00  0.00000000E+00
  0.00000000E+00  0.00000000E+00  0.00000000E+00
  0.00000000E+00  0.00000000E+00  0.00000000E+00
  0.00000000E+00  0.00000000E+00  0.00000000E+00
  0.00000000E+00  0.00000000E+00  0.00000000E+00
  0.00000000E+00  0.00000000E+00  0.00000000E+00
  0.00000000E+00  0.00000000E+00  0.00000000E+00
  0.00000000E+00  0.00000000E+00  0.00000000E+00
  0.00000000E+00  0.00000000E+00  0.00000000E+00
  0.00000000E+00  0.00000000E+00  0.00000000E+00
  0.00000000E+00  0.00000000E+00  0.00000000E+00
  0.00000000E+00  0.00000000E+00  0.00000000E+00
  0.00000000E+00  0.00000000E+00  0.00000000E+00
  0.00000000E+00  0.00000000E+00  0.00000000E+00
  0.00000000E+00  0.00000000E+00  0.00000000E+00
  0.00000000E+00  0.00000000E+00  0.00000000E+00
  0.00000000E+00  0.00000000E+00  0.00000000E+00
  0.00000000E+00  0.00000000E+00  0.00000000E+00
  0.00000000E+00  0.00000000E+00  0.00000000E+00
  0.00000000E+00  0.00000000E+00  0.00000000E+00
  0.00000000E+00  0.00000000E+00  0.00000000E+00
  0.00000000E+00  0.00000000E+00  0.00000000E+00
  0.00000000E+00  0.00000000E+00  0.00000000E+00
  0.00000000E+00  0.00000000E+00  0.00000000E+00
  0.00000000E+00  0.00000000E+00  0.00000000E+00
  0.00000000E+00  0.00000000E+00  0.00000000E+00
  0.00000000E+00  0.00000000E+00  0.00000000E+00
  0.00000000E+00  0.00000000E+00  0.00000000E+00
  0.00000000E+00  0.00000000E+00  0.00000000E+00
  0.00000000E+00  0.00000000E+00  0.00000000E+00
  0.00000000E+00  0.00000000E+00  0.00000000E+00
  0.00000000E+00  0.00000000E+00  0.00000000E+00
  0.00000000E+00  0.00000000E+00  0.00000000E+00
  0.00000000E+00  0.00000000E+00  0.00000000E+00
  0.00000000E+00  0.00000000E+00  0.00000000E+00
  0.00000000E+00  0.00000000E+00  0.00000000E+00
  0.00000000E+00  0.00000000E+00  0.00000000E+00
  0.00000000E+00  0.00000000E+00  0.00000000E+00
  0.00000000E+00  0.00000000E+00  0.00000000E+00
  0.00000000E+00  0.00000000E+00  0.00000000E+00
  0.00000000E+00  0.00000000E+00  0.00000000E+00
  0.00000000E+00  0.00000000E+00  0.00000000E+00
  0.00000000E+00  0.00000000E+00  0.00000000E+00
  0.00000000E+00  0.00000000E+00  0.00000000E+00
  0.00000000E+00  0.00000000E+00  0.00000000E+00
  0.00000000E+00  0.00000000E+00  0.00000000E+00
  0.00000000E+00  0.00000000E+00  0.00000000E+00
  0.00000000E+00  0.00000000E+00  0.00000000E+00
  0.00000000E+00  0.00000000E+00  0.00000000E+00
  0.00000000E+00  0.00000000E+00  0.00000000E+00
  0.00000000E+00  0.00000000E+00  0.00000000E+00
  0.00000000E+00  0.00000000E+00  0.00000000E+00
  0.00000000E+00  0.00000000E+00  0.00000000E+00
  0.00000000E+00  0.00000000E+00  0.00000000E+00
  0.00000000E+00  0.00000000E+00  0.00000000E+00
  0.00000000E+00  0.00000000E+00  0.00000000E+00
  0.00000000E+00  0.00000000E+00  0.00000000E+00
  0.00000000E+00  0.00000000E+00  0.00000000E+00
  0.00000000E+00  0.00000000E+00  0.00000000E+00
  0.00000000E+00  0.00000000E+00  0.00000000E+00
  0.00000000E+00  0.00000000E+00  0.00000000E+00
  0.00000000E+00  0.00000000E+00  0.00000000E+00
  0.00000000E+00  0.00000000E+00  0.00000000E+00
  0.00000000E+00  0.00000000E+00  0.00000000E+00
  0.00000000E+00  0.00000000E+00  0.00000000E+00
  0.00000000E+00  0.00000000E+00  0.00000000E+00
  0.00000000E+00  0.00000000E+00  0.00000000E+00
  0.00000000E+00  0.00000000E+00  0.00000000E+00
  0.00000000E+00  0.00000000E+00  0.00000000E+00
  0.00000000E+00  0.00000000E+00  0.00000000E+00
  0.00000000E+00  0.00000000E+00  0.00000000E+00
  0.00000000E+00  0.00000000E+00  0.00000000E+00
  0.00000000E+00  0.00000000E+00  0.00000000E+00
  0.00000000E+00  0.00000000E+00  0.00000000E+00
  0.00000000E+00  0.00000000E+00  0.00000000E+00
  0.00000000E+00  0.00000000E+00  0.00000000E+00
  0.00000000E+00  0.00000000E+00  0.00000000E+00
  0.00000000E+00  0.00000000E+00  0.00000000E+00
  0.00000000E+00  0.00000000E+00  0.00000000E+00
  0.00000000E+00  0.00000000E+00  0.00000000E+00
  0.00000000E+00  0.00000000E+00  0.00000000E+00
  0.00000000E+00  0.00000000E+00  0.00000000E+00
  0.00000000E+00  0.00000000E+00  0.00000000E+00
  0.00000000E+00  0.00000000E+00  0.00000000E+00
  0.00000000E+00  0.00000000E+00  0.00000000E+00
  0.00000000E+00  0.00000000E+00  0.00000000E+00
  0.00000000E+00  0.00000000E+00  0.00000000E+00
  0.00000000E+00  0.00000000E+00  0.00000000E+00
  0.00000000E+00  0.00000000E+00  0.00000000E+00
  0.00000000E+00  0.00000000E+00  0.00000000E+00
  0.00000000E+00  0.00000000E+00  0.00000000E+00
  0.00000000E+00  0.00000000E+00  0.00000000E+00
  0.00000000E+00  0.00000000E+00  0.00000000E+00
  0.00000000E+00  0.00000000E+00  0.00000000E+00
  0.00000000E+00  0.00000000E+00  0.00000000E+00
  0.00000000E+00  0.00000000E+00  0.00000000E+00
