4n                                      
   1.00000000000000     
     7.7781500000000001    0.0000000000000000    0.0000000000000000
    -3.8890750000000001    6.7360755000000001    0.0000000000000000
     0.0000002500000000    0.0000002500000000   26.1140000000000008
   C    Ce   H    O 
     1    16     1    33
Selective dynamics
Direct
  0.4198393498455484  0.5724402257554014  0.4794996254820688   T   T   T
  0.3312383328101021  0.1654774619054891  0.0304000000000002   F   F   F
  0.8312383328101028  0.1654774619054891  0.0304000000000002   F   F   F
  0.3312383328101021  0.6654774619054891  0.0304000000000002   F   F   F
  0.8312383328101028  0.6654774619054891  0.0304000000000002   F   F   F
  0.4978983513047694  0.4988174754445396  0.1520000000000010   F   F   F
  0.9978983513047701  0.4988174754445396  0.1520000000000010   F   F   F
  0.4978983513047664  0.9988174754445396  0.1520000000000010   F   F   F
  0.9978983513047694  0.9988174754445396  0.1520000000000010   F   F   F
  0.1626717671352800  0.8308644610340774  0.2727176977459033   T   T   T
  0.6647293774952152  0.3333765786268730  0.2718489827186505   T   T   T
  0.1640037315873401  0.3304444222144649  0.2731712407723786   T   T   T
  0.6638039705547608  0.8309286422148897  0.2736812501484399   T   T   T
  0.3393226262846742  0.1613207623945478  0.3916067693958972   T   T   T
  0.8247166806973952  0.1696198640397995  0.3922921843211791   T   T   T
  0.3251253654922356  0.6658283413550439  0.3945543618565680   T   T   T
  0.8306285506504638  0.6586158610919263  0.3950858560410322   T   T   T
  1.0044716542810177  1.0112969207417482  0.4759252796951377   T   T   T
  0.1645583281864234  0.3321574585207472  0.0000000000000000   F   F   F
  0.6645583281864234  0.8321574585207472  0.0000000000000000   F   F   F
  0.6645583281864234  0.3321574585207472  0.0000000000000000   F   F   F
  0.1645583281864234  0.8321574585207472  0.0000000000000000   F   F   F
  0.9978983374337681  0.4988174652902586  0.0608000000000004   F   F   F
  0.4978983374337677  0.4988174652902586  0.0608000000000004   F   F   F
  0.4978983374337678  0.9988174652902595  0.0608000000000004   F   F   F
  0.9978983374337673  0.9988174652902595  0.0608000000000004   F   F   F
  0.8312383466811205  0.1654774720597716  0.1216000000000008   F   F   F
  0.3312383466811141  0.1654774720597716  0.1216000000000008   F   F   F
  0.3312383466811113  0.6654774720597700  0.1216000000000008   F   F   F
  0.8312383466811184  0.6654774720597700  0.1216000000000008   F   F   F
  0.1645583559284339  0.8321574788293128  0.1824000000000012   F   F   F
  0.6645583559284347  0.8321574788293128  0.1824000000000012   F   F   F
  0.1645583559284343  0.3321574788293091  0.1824000000000012   F   F   F
  0.6645583559284354  0.3321574788293091  0.1824000000000012   F   F   F
  0.9987166968644282  0.4981693965635114  0.2424003104164825   T   T   T
  0.4977185893232525  0.9961403862623631  0.2427122909153510   T   T   T
  0.9968230496316934  0.9993742693833636  0.2429299174647312   T   T   T
  0.4960035891318537  0.4994496357971295  0.2427695318793509   T   T   T
  0.8307801460906616  0.6648745367188066  0.3019030384012675   T   T   T
  0.3329649844406037  0.1637572284594020  0.3020689556082987   T   T   T
  0.3269913174787353  0.6625413431720845  0.3049988975785740   T   T   T
  0.8302889021648265  0.1671469458465285  0.3037955852787250   T   T   T
  0.1659671386703033  0.8406122069823140  0.3642028251165207   T   T   T
  0.6579541717685844  0.3282252388289318  0.3619419676601505   T   T   T
  0.6651147438826021  0.8366394399781519  0.3649221624843246   T   T   T
  0.1626829058070852  0.3153542957819005  0.3632173336906379   T   T   T
  0.4999426652779037  0.0076132080624653  0.4237409322681778   T   T   T
  0.9998919103202675  0.4826829437959158  0.4225323233161734   T   T   T
  0.4832752480047008  0.4776168346233705  0.4322795768743143   T   T   T
  1.0016590984971820  1.0066749106427626  0.4386369764489175   T   T   T
  0.4509201787295026  0.5357873749187332  0.5214733714962705   T   T   T
 
  0.00000000E+00  0.00000000E+00  0.00000000E+00
  0.00000000E+00  0.00000000E+00  0.00000000E+00
  0.00000000E+00  0.00000000E+00  0.00000000E+00
  0.00000000E+00  0.00000000E+00  0.00000000E+00
  0.00000000E+00  0.00000000E+00  0.00000000E+00
  0.00000000E+00  0.00000000E+00  0.00000000E+00
  0.00000000E+00  0.00000000E+00  0.00000000E+00
  0.00000000E+00  0.00000000E+00  0.00000000E+00
  0.00000000E+00  0.00000000E+00  0.00000000E+00
  0.00000000E+00  0.00000000E+00  0.00000000E+00
  0.00000000E+00  0.00000000E+00  0.00000000E+00
  0.00000000E+00  0.00000000E+00  0.00000000E+00
  0.00000000E+00  0.00000000E+00  0.00000000E+00
  0.00000000E+00  0.00000000E+00  0.00000000E+00
  0.00000000E+00  0.00000000E+00  0.00000000E+00
  0.00000000E+00  0.00000000E+00  0.00000000E+00
  0.00000000E+00  0.00000000E+00  0.00000000E+00
  0.00000000E+00  0.00000000E+00  0.00000000E+00
  0.00000000E+00  0.00000000E+00  0.00000000E+00
  0.00000000E+00  0.00000000E+00  0.00000000E+00
  0.00000000E+00  0.00000000E+00  0.00000000E+00
  0.00000000E+00  0.00000000E+00  0.00000000E+00
  0.00000000E+00  0.00000000E+00  0.00000000E+00
  0.00000000E+00  0.00000000E+00  0.00000000E+00
  0.00000000E+00  0.00000000E+00  0.00000000E+00
  0.00000000E+00  0.00000000E+00  0.00000000E+00
  0.00000000E+00  0.00000000E+00  0.00000000E+00
  0.00000000E+00  0.00000000E+00  0.00000000E+00
  0.00000000E+00  0.00000000E+00  0.00000000E+00
  0.00000000E+00  0.00000000E+00  0.00000000E+00
  0.00000000E+00  0.00000000E+00  0.00000000E+00
  0.00000000E+00  0.00000000E+00  0.00000000E+00
  0.00000000E+00  0.00000000E+00  0.00000000E+00
  0.00000000E+00  0.00000000E+00  0.00000000E+00
  0.00000000E+00  0.00000000E+00  0.00000000E+00
  0.00000000E+00  0.00000000E+00  0.00000000E+00
  0.00000000E+00  0.00000000E+00  0.00000000E+00
  0.00000000E+00  0.00000000E+00  0.00000000E+00
  0.00000000E+00  0.00000000E+00  0.00000000E+00
  0.00000000E+00  0.00000000E+00  0.00000000E+00
  0.00000000E+00  0.00000000E+00  0.00000000E+00
  0.00000000E+00  0.00000000E+00  0.00000000E+00
  0.00000000E+00  0.00000000E+00  0.00000000E+00
  0.00000000E+00  0.00000000E+00  0.00000000E+00
  0.00000000E+00  0.00000000E+00  0.00000000E+00
  0.00000000E+00  0.00000000E+00  0.00000000E+00
  0.00000000E+00  0.00000000E+00  0.00000000E+00
  0.00000000E+00  0.00000000E+00  0.00000000E+00
  0.00000000E+00  0.00000000E+00  0.00000000E+00
  0.00000000E+00  0.00000000E+00  0.00000000E+00
  0.00000000E+00  0.00000000E+00  0.00000000E+00
