cot16n                                  
   1.00000000000000     
    15.5563000000000002    0.0000000000000000    0.0000000000000000
    -7.7781500000000001   13.4721510000000002    0.0000000000000000
     0.0000010000000000    0.0000010000000000   26.1140000000000008
   C    Ce   H    O 
     1    64     1   129
Selective dynamics
Direct
  0.4617033733710161  0.5388046630423108  0.4803472993036960   T   T   T
  0.4166700000000034  0.3333299999999965  0.0304000000000002   F   F   F
  0.6666700000000034  0.3333299999999965  0.0304000000000002   F   F   F
  0.6666700000000035  1.0833299999999966  0.0304000000000002   F   F   F
  0.9166700000000034  1.0833299999999966  0.0304000000000002   F   F   F
 -0.0833300000000974  0.3333299999999965  0.0304000000000002   F   F   F
  0.1666699999998515  0.8333299999999966  0.0304000000000002   F   F   F
  0.1666700000000034  0.5833299999999966  0.0304000000000002   F   F   F
  0.4166700000000034  0.5833299999999966  0.0304000000000002   F   F   F
  0.4166700000000034  0.8333299999999966  0.0304000000000002   F   F   F
  0.6666700000000034  0.8333299999999966  0.0304000000000002   F   F   F
  0.6666700000000034  0.5833299999999966  0.0304000000000002   F   F   F
  0.9166700000000035  0.5833299999999966  0.0304000000000002   F   F   F
  0.9166700000000034  0.8333299999999966  0.0304000000000002   F   F   F
  0.1666700000000034  0.3333299999999965  0.0304000000000002   F   F   F
  0.1666700000000035  0.0833299999999966  0.0304000000000002   F   F   F
  0.4166700000000035  0.0833299999999966  0.0304000000000002   F   F   F
  0.0000000000000000  0.5000000000000000  0.1520000000000010   F   F   F
  1.0000000000000000  0.7500000000000000  0.1520000000000010   F   F   F
  0.2500000000000000  0.7500000000000000  0.1520000000000010   F   F   F
  0.2500000000000006  0.5000000000000000  0.1520000000000010   F   F   F
  0.5000000000000000  0.5000000000000000  0.1520000000000010   F   F   F
  0.5000000000000000  0.7500000000000000  0.1520000000000010   F   F   F
  0.7500000000000000  0.7500000000000000  0.1520000000000010   F   F   F
  0.7500000000000000  0.5000000000000000  0.1520000000000010   F   F   F
  1.0000000000000000  0.9999999999999999  0.1520000000000010   F   F   F
 -0.0000000000000982  0.2500000000000001  0.1520000000000010   F   F   F
  0.2500000000000001  0.2500000000000001  0.1520000000000010   F   F   F
  0.2500000000002569  0.0000000000000000  0.1520000000000010   F   F   F
  0.5000000000000000  0.9999999999999999  0.1520000000000010   F   F   F
  0.5000000000000000  0.2500000000000001  0.1520000000000010   F   F   F
  0.7500000000000000  0.2500000000000001  0.1520000000000010   F   F   F
  0.7500000000000000  0.9999999999999999  0.1520000000000010   F   F   F
  0.0831097879798436  0.4172163806536929  0.2719505842278344   T   T   T
  0.8325626845077062  0.6663369350374758  0.2733301458113758   T   T   T
  1.0826847668942536  0.9155516210628336  0.2722602552139351   T   T   T
  0.3332749001873637  0.6666882244950765  0.2728791269864261   T   T   T
  0.3332413183096385  0.1667034238607598  0.2728749351643654   T   T   T
  0.8335315423588219  0.4167253823066692  0.2723699562103357   T   T   T
  0.8338062559046429  1.1670268721447621  0.2725792160160944   T   T   T
  0.0830514899384675  0.6667019888274777  0.2725639138184217   T   T   T
  0.5836172657095743  0.1671848601982522  0.2728938753278302   T   T   T
  0.8335005283299752  0.9165212834753931  0.2727904608471271   T   T   T
  0.5833655908828626  0.9166154389596839  0.2730837492823069   T   T   T
  0.3330922481179083  0.9165724635082639  0.2730236570731877   T   T   T
  0.0841043985994366  0.1669586005981268  0.2729641853706271   T   T   T
  0.5845327447561077  0.4179077809629285  0.2731409698821853   T   T   T
  0.3335552408791880  0.4169302761159894  0.2736431800408977   T   T   T
  0.5831041789072392  0.6658142565325177  0.2742915031871898   T   T   T
  0.4226801534607317  0.3317437291762425  0.3921557502658932   T   T   T
 -0.0838885830901345  0.3335235366555542  0.3922578641745870   T   T   T
  0.6673434873832945  1.0837473660802290  0.3926003999197763   T   T   T
  0.9170875652884920  1.0838708401527231  0.3925554340955075   T   T   T
  0.1623458156075832  0.0748785646229907  0.3922220871352133   T   T   T
  0.1635011830740350  0.3378767839338243  0.3917687711617967   T   T   T
  0.1653619469399840  0.5847234600307351  0.3927170782267901   T   T   T
  0.9156943414636403  0.8328968525504463  0.3930310062582116   T   T   T
  0.4168930277398650  0.8345711991173038  0.3931499181274372   T   T   T
  0.4170528040912139  0.0825957016573070  0.3933223293721538   T   T   T
  0.9172802103967547  0.5824921726419964  0.3932159174289209   T   T   T
  0.6700207816000189  0.3337479681057736  0.3930058495928153   T   T   T
  0.6673066777647468  0.8345672326021322  0.3933277611527435   T   T   T
  0.1653147092990353  0.8311193865389628  0.3934719365387791   T   T   T
  0.4140844768163882  0.5867189389284733  0.3944936170628837   T   T   T
  0.6713509258000094  0.5854766872041306  0.3965800846063769   T   T   T
  0.2509389421104138  0.2504403857629834  0.4748118691674664   T   T   T
  0.0833299999999966  0.6666700000000034  0.0000000000000000   F   F   F
  1.0833299999999957  0.9166700000000034  0.0000000000000000   F   F   F
  0.3333299999999966  0.9166700000000034  0.0000000000000000   F   F   F
  0.3333299999999966  0.4166700000000034  0.0000000000000000   F   F   F
  0.8333299999999966  0.6666700000000034  0.0000000000000000   F   F   F
  0.5833299999999966  0.6666700000000034  0.0000000000000000   F   F   F
  0.5833299999999966  0.9166700000000034  0.0000000000000000   F   F   F
  0.8333299999999966  0.9166700000000034  0.0000000000000000   F   F   F
  0.3333299999999966  0.1666700000000034  0.0000000000000000   F   F   F
  0.8333299999999985  1.1666700000000034  0.0000000000000000   F   F   F
  0.5833299999999966  0.1666700000000034  0.0000000000000000   F   F   F
  0.5833299999999966  0.4166700000000034  0.0000000000000000   F   F   F
  0.0833299999999966  0.1666700000000034  0.0000000000000000   F   F   F
  0.8333299999999967  0.4166700000000034  0.0000000000000000   F   F   F
  0.3333299999999966  0.6666700000000034  0.0000000000000000   F   F   F
  0.0833299999999966  0.4166700000000034  0.0000000000000000   F   F   F
  0.2499999999999999  0.4999999999999997  0.0608000000000004   F   F   F
 -0.0000000000000001  0.4999999999999997  0.0608000000000004   F   F   F
  0.9999999999999930  0.7500000000000001  0.0608000000000004   F   F   F
  0.2500000000000000  0.7500000000000001  0.0608000000000004   F   F   F
  0.7499999999999999  0.4999999999999997  0.0608000000000004   F   F   F
  0.5000000000000001  0.4999999999999997  0.0608000000000004   F   F   F
  0.5000000000000001  0.7500000000000001  0.0608000000000004   F   F   F
  0.7500000000000001  0.7500000000000001  0.0608000000000004   F   F   F
  0.2500000000000000  0.0000000000000000  0.0608000000000004   F   F   F
  1.0000000000000000  1.0000000000000000  0.0608000000000004   F   F   F
  0.0000000000000000  0.2500000000000000  0.0608000000000004   F   F   F
  0.2500000000000000  0.2500000000000000  0.0608000000000004   F   F   F
  0.7500000000000000  1.0000000000000000  0.0608000000000004   F   F   F
  0.5000000000000000  1.0000000000000000  0.0608000000000004   F   F   F
  0.5000000000000000  0.2500000000000000  0.0608000000000004   F   F   F
  0.7500000000000000  0.2500000000000000  0.0608000000000004   F   F   F
  0.6666700000000034  0.3333299999999966  0.1216000000000008   F   F   F
 -0.0833300000000938  0.3333299999999966  0.1216000000000008   F   F   F
  0.9166700000000056  1.0833299999999966  0.1216000000000008   F   F   F
  0.6666700000000017  1.0833299999999966  0.1216000000000008   F   F   F
  0.4166700000000034  0.3333299999999966  0.1216000000000008   F   F   F
  0.1666700000000033  0.8333299999999964  0.1216000000000008   F   F   F
  0.4166700000000046  0.8333299999999964  0.1216000000000008   F   F   F
  0.4166700000000046  0.5833299999999965  0.1216000000000008   F   F   F
  0.4166700000003311  0.0833299999999966  0.1216000000000008   F   F   F
  0.1666700000000041  0.5833299999999965  0.1216000000000008   F   F   F
  0.6666700000000034  0.8333299999999964  0.1216000000000008   F   F   F
  0.1666700000000041  0.0833299999999966  0.1216000000000008   F   F   F
  0.9166700000000034  0.8333299999999964  0.1216000000000008   F   F   F
  0.9166700000000034  0.5833299999999965  0.1216000000000008   F   F   F
  0.6666700000000056  0.5833299999999965  0.1216000000000008   F   F   F
  0.1666700000000034  0.3333299999999966  0.1216000000000008   F   F   F
  0.0833299999999967  0.6666700000000036  0.1824000000000012   F   F   F
  0.3333299999999975  0.6666700000000036  0.1824000000000012   F   F   F
  0.3333299999999966  0.9166700000000034  0.1824000000000012   F   F   F
  1.0833299999999964  0.9166700000000034  0.1824000000000012   F   F   F
  0.5833299999999969  0.6666700000000036  0.1824000000000012   F   F   F
  0.8333299999999985  0.6666700000000036  0.1824000000000012   F   F   F
  0.8333299999999967  0.9166700000000034  0.1824000000000012   F   F   F
  0.5833299999999966  0.9166700000000034  0.1824000000000012   F   F   F
  0.0833299999999966  0.1666700000000034  0.1824000000000012   F   F   F
  0.3333299999999975  0.1666700000000034  0.1824000000000012   F   F   F
  0.3333299999999975  0.4166700000000034  0.1824000000000012   F   F   F
  0.0833299999999966  0.4166700000000034  0.1824000000000012   F   F   F
  0.5833299999999966  0.1666700000000034  0.1824000000000012   F   F   F
  0.8333299999999985  1.1666700000000036  0.1824000000000012   F   F   F
  0.8333299999999967  0.4166700000000034  0.1824000000000012   F   F   F
  0.5833299999999967  0.4166700000000034  0.1824000000000012   F   F   F
  0.0002090847076870  0.5002236390295103  0.2421311222423272   T   T   T
  0.9999873268580104  0.7499684522395437  0.2426149294085924   T   T   T
  1.0001880968754915  1.0004170085908248  0.2424083325919617   T   T   T
  0.7501066970861020  0.4998086119436067  0.2425294399361964   T   T   T
  0.2503966417352730  0.0000877212160294  0.2426298742114766   T   T   T
  0.2502408872205187  0.7503669562009160  0.2426885877595484   T   T   T
  0.2499480555624412  0.5000758710010437  0.2424871509836225   T   T   T
  0.0005918982327230  0.2498679154978584  0.2422614209288350   T   T   T
  0.7497906441039606  0.2497570104158886  0.2424616168988391   T   T   T
  0.4998934091231048  0.2496015420151884  0.2427846729864146   T   T   T
  0.7498601319142761  0.7506182300119161  0.2428600797154600   T   T   T
  0.4996196328960176  1.0005744472190794  0.2429900334390049   T   T   T
  0.4999726403491705  0.7497298513587795  0.2432040295123143   T   T   T
  0.7505640792872189  0.9999978942558340  0.2430761965392203   T   T   T
  0.2499249174106638  0.2498253611568942  0.2432966743919857   T   T   T
  0.4991985057381911  0.4998821884898373  0.2431325072303689   T   T   T
  0.6672082810673303  0.5838770644032727  0.3027715933256530   T   T   T
  0.4178056239547766  0.3332633356588974  0.3033623563209841   T   T   T
 -0.0830059800493092  0.3326528810956179  0.3026146378366423   T   T   T
  0.6673584555779938  1.0839802914457650  0.3033220207110144   T   T   T
  0.1663951541424045  0.5835087739725717  0.3032403650687928   T   T   T
  0.4139302044507523  0.5813749087285222  0.3041464577190788   T   T   T
  0.9165832079331481  0.5826394059462722  0.3032573912092723   T   T   T
  0.9164530028438175  0.8337349537498840  0.3032883317045933   T   T   T
  0.1655714868570212  0.0808367442711702  0.3033853416014844   T   T   T
  0.4169545797412144  0.8338463147295144  0.3036357229479153   T   T   T
  0.1665833013098767  0.8330794598551204  0.3036288698635755   T   T   T
 -0.0797977928996034  0.0860192465057024  0.3041292669715627   T   T   T
  0.4156000980436633  0.0845854952737517  0.3047652695607949   T   T   T
  0.1659699720795975  0.3347493758218701  0.3034623634233685   T   T   T
  0.6674856282771300  0.3337598904016274  0.3035833232216847   T   T   T
  0.6664526476112484  0.8325939643571865  0.3044800576210946   T   T   T
  0.0815959100843961  0.4169627508306603  0.3615934143932232   T   T   T
  0.8351805662630204  0.4148244851146519  0.3611510631355928   T   T   T
  0.5841959769705941  0.1666003275217324  0.3623717097552480   T   T   T
  0.8354590117391076  0.9204851908984032  0.3614807999842352   T   T   T
  0.5844574176097432  0.9191344360182826  0.3623276668915707   T   T   T
  1.0821092191191446  0.9148794292556617  0.3622090000854639   T   T   T
  0.8341223447641982  1.1670078027128441  0.3621243940533841   T   T   T
  0.8384276992190993  0.6690878859851311  0.3630100445245469   T   T   T
  0.0830581966329002  0.6662785604196845  0.3621176851253526   T   T   T
  0.3317759254744537  0.6677055924007824  0.3627577425424239   T   T   T
  0.3332514911427376  0.9170118535519324  0.3627209688025462   T   T   T
  0.3288324394067215  0.1691339905119897  0.3639484012932029   T   T   T
  0.0914440402123292  0.1706916024935792  0.3638800273468932   T   T   T
  0.5822060591091522  0.4137017510566770  0.3632797597875203   T   T   T
  0.5779424133491318  0.6650805093175324  0.3647946595497022   T   T   T
  0.3303345990154573  0.4098690954949736  0.3644974932235539   T   T   T
  0.0013398378167332  0.2513965639996945  0.4221722248233574   T   T   T
  0.7520470322331856  1.0021105916885453  0.4226531244697074   T   T   T
  0.7511778432410176  0.2499017214810579  0.4228071303425033   T   T   T
  0.0017017353072475  0.0008256377226982  0.4225971531585163   T   T   T
  0.0006048500183199  0.4998091829716546  0.4227290788505781   T   T   T
  0.4995204941050341  1.0015090958041535  0.4229468006589277   T   T   T
  0.2481259967476645 -0.0006492956588378  0.4228099834498791   T   T   T
  1.0028531424374814  0.7507570033093816  0.4238721698141277   T   T   T
  0.2481467791554242  0.7500736207302559  0.4231792780874842   T   T   T
  0.4983539497521957  0.2465066760535594  0.4230271433558674   T   T   T
  0.4985540515119128  0.7549396164955002  0.4224112124901138   T   T   T
  0.7564860784952059  0.7624819659653078  0.4236952993778488   T   T   T
  0.7574119253714834  0.4934786277264476  0.4240365401545507   T   T   T
  0.2449756183260163  0.4987753952567068  0.4217178170074540   T   T   T
  0.4923238639383451  0.4872118678364029  0.4319292363873460   T   T   T
  0.2490570025872969  0.2481194204426618  0.4373666121213478   T   T   T
  0.4800293939501079  0.5219241723970950  0.5219182118156331   T   T   T
 
  0.00000000E+00  0.00000000E+00  0.00000000E+00
  0.00000000E+00  0.00000000E+00  0.00000000E+00
  0.00000000E+00  0.00000000E+00  0.00000000E+00
  0.00000000E+00  0.00000000E+00  0.00000000E+00
  0.00000000E+00  0.00000000E+00  0.00000000E+00
  0.00000000E+00  0.00000000E+00  0.00000000E+00
  0.00000000E+00  0.00000000E+00  0.00000000E+00
  0.00000000E+00  0.00000000E+00  0.00000000E+00
  0.00000000E+00  0.00000000E+00  0.00000000E+00
  0.00000000E+00  0.00000000E+00  0.00000000E+00
  0.00000000E+00  0.00000000E+00  0.00000000E+00
  0.00000000E+00  0.00000000E+00  0.00000000E+00
  0.00000000E+00  0.00000000E+00  0.00000000E+00
  0.00000000E+00  0.00000000E+00  0.00000000E+00
  0.00000000E+00  0.00000000E+00  0.00000000E+00
  0.00000000E+00  0.00000000E+00  0.00000000E+00
  0.00000000E+00  0.00000000E+00  0.00000000E+00
  0.00000000E+00  0.00000000E+00  0.00000000E+00
  0.00000000E+00  0.00000000E+00  0.00000000E+00
  0.00000000E+00  0.00000000E+00  0.00000000E+00
  0.00000000E+00  0.00000000E+00  0.00000000E+00
  0.00000000E+00  0.00000000E+00  0.00000000E+00
  0.00000000E+00  0.00000000E+00  0.00000000E+00
  0.00000000E+00  0.00000000E+00  0.00000000E+00
  0.00000000E+00  0.00000000E+00  0.00000000E+00
  0.00000000E+00  0.00000000E+00  0.00000000E+00
  0.00000000E+00  0.00000000E+00  0.00000000E+00
  0.00000000E+00  0.00000000E+00  0.00000000E+00
  0.00000000E+00  0.00000000E+00  0.00000000E+00
  0.00000000E+00  0.00000000E+00  0.00000000E+00
  0.00000000E+00  0.00000000E+00  0.00000000E+00
  0.00000000E+00  0.00000000E+00  0.00000000E+00
  0.00000000E+00  0.00000000E+00  0.00000000E+00
  0.00000000E+00  0.00000000E+00  0.00000000E+00
  0.00000000E+00  0.00000000E+00  0.00000000E+00
  0.00000000E+00  0.00000000E+00  0.00000000E+00
  0.00000000E+00  0.00000000E+00  0.00000000E+00
  0.00000000E+00  0.00000000E+00  0.00000000E+00
  0.00000000E+00  0.00000000E+00  0.00000000E+00
  0.00000000E+00  0.00000000E+00  0.00000000E+00
  0.00000000E+00  0.00000000E+00  0.00000000E+00
  0.00000000E+00  0.00000000E+00  0.00000000E+00
  0.00000000E+00  0.00000000E+00  0.00000000E+00
  0.00000000E+00  0.00000000E+00  0.00000000E+00
  0.00000000E+00  0.00000000E+00  0.00000000E+00
  0.00000000E+00  0.00000000E+00  0.00000000E+00
  0.00000000E+00  0.00000000E+00  0.00000000E+00
  0.00000000E+00  0.00000000E+00  0.00000000E+00
  0.00000000E+00  0.00000000E+00  0.00000000E+00
  0.00000000E+00  0.00000000E+00  0.00000000E+00
  0.00000000E+00  0.00000000E+00  0.00000000E+00
  0.00000000E+00  0.00000000E+00  0.00000000E+00
  0.00000000E+00  0.00000000E+00  0.00000000E+00
  0.00000000E+00  0.00000000E+00  0.00000000E+00
  0.00000000E+00  0.00000000E+00  0.00000000E+00
  0.00000000E+00  0.00000000E+00  0.00000000E+00
  0.00000000E+00  0.00000000E+00  0.00000000E+00
  0.00000000E+00  0.00000000E+00  0.00000000E+00
  0.00000000E+00  0.00000000E+00  0.00000000E+00
  0.00000000E+00  0.00000000E+00  0.00000000E+00
  0.00000000E+00  0.00000000E+00  0.00000000E+00
  0.00000000E+00  0.00000000E+00  0.00000000E+00
  0.00000000E+00  0.00000000E+00  0.00000000E+00
  0.00000000E+00  0.00000000E+00  0.00000000E+00
  0.00000000E+00  0.00000000E+00  0.00000000E+00
  0.00000000E+00  0.00000000E+00  0.00000000E+00
  0.00000000E+00  0.00000000E+00  0.00000000E+00
  0.00000000E+00  0.00000000E+00  0.00000000E+00
  0.00000000E+00  0.00000000E+00  0.00000000E+00
  0.00000000E+00  0.00000000E+00  0.00000000E+00
  0.00000000E+00  0.00000000E+00  0.00000000E+00
  0.00000000E+00  0.00000000E+00  0.00000000E+00
  0.00000000E+00  0.00000000E+00  0.00000000E+00
  0.00000000E+00  0.00000000E+00  0.00000000E+00
  0.00000000E+00  0.00000000E+00  0.00000000E+00
  0.00000000E+00  0.00000000E+00  0.00000000E+00
  0.00000000E+00  0.00000000E+00  0.00000000E+00
  0.00000000E+00  0.00000000E+00  0.00000000E+00
  0.00000000E+00  0.00000000E+00  0.00000000E+00
  0.00000000E+00  0.00000000E+00  0.00000000E+00
  0.00000000E+00  0.00000000E+00  0.00000000E+00
  0.00000000E+00  0.00000000E+00  0.00000000E+00
  0.00000000E+00  0.00000000E+00  0.00000000E+00
  0.00000000E+00  0.00000000E+00  0.00000000E+00
  0.00000000E+00  0.00000000E+00  0.00000000E+00
  0.00000000E+00  0.00000000E+00  0.00000000E+00
  0.00000000E+00  0.00000000E+00  0.00000000E+00
  0.00000000E+00  0.00000000E+00  0.00000000E+00
  0.00000000E+00  0.00000000E+00  0.00000000E+00
  0.00000000E+00  0.00000000E+00  0.00000000E+00
  0.00000000E+00  0.00000000E+00  0.00000000E+00
  0.00000000E+00  0.00000000E+00  0.00000000E+00
  0.00000000E+00  0.00000000E+00  0.00000000E+00
  0.00000000E+00  0.00000000E+00  0.00000000E+00
  0.00000000E+00  0.00000000E+00  0.00000000E+00
  0.00000000E+00  0.00000000E+00  0.00000000E+00
  0.00000000E+00  0.00000000E+00  0.00000000E+00
  0.00000000E+00  0.00000000E+00  0.00000000E+00
  0.00000000E+00  0.00000000E+00  0.00000000E+00
  0.00000000E+00  0.00000000E+00  0.00000000E+00
  0.00000000E+00  0.00000000E+00  0.00000000E+00
  0.00000000E+00  0.00000000E+00  0.00000000E+00
  0.00000000E+00  0.00000000E+00  0.00000000E+00
  0.00000000E+00  0.00000000E+00  0.00000000E+00
  0.00000000E+00  0.00000000E+00  0.00000000E+00
  0.00000000E+00  0.00000000E+00  0.00000000E+00
  0.00000000E+00  0.00000000E+00  0.00000000E+00
  0.00000000E+00  0.00000000E+00  0.00000000E+00
  0.00000000E+00  0.00000000E+00  0.00000000E+00
  0.00000000E+00  0.00000000E+00  0.00000000E+00
  0.00000000E+00  0.00000000E+00  0.00000000E+00
  0.00000000E+00  0.00000000E+00  0.00000000E+00
  0.00000000E+00  0.00000000E+00  0.00000000E+00
  0.00000000E+00  0.00000000E+00  0.00000000E+00
  0.00000000E+00  0.00000000E+00  0.00000000E+00
  0.00000000E+00  0.00000000E+00  0.00000000E+00
  0.00000000E+00  0.00000000E+00  0.00000000E+00
  0.00000000E+00  0.00000000E+00  0.00000000E+00
  0.00000000E+00  0.00000000E+00  0.00000000E+00
  0.00000000E+00  0.00000000E+00  0.00000000E+00
  0.00000000E+00  0.00000000E+00  0.00000000E+00
  0.00000000E+00  0.00000000E+00  0.00000000E+00
  0.00000000E+00  0.00000000E+00  0.00000000E+00
  0.00000000E+00  0.00000000E+00  0.00000000E+00
  0.00000000E+00  0.00000000E+00  0.00000000E+00
  0.00000000E+00  0.00000000E+00  0.00000000E+00
  0.00000000E+00  0.00000000E+00  0.00000000E+00
  0.00000000E+00  0.00000000E+00  0.00000000E+00
  0.00000000E+00  0.00000000E+00  0.00000000E+00
  0.00000000E+00  0.00000000E+00  0.00000000E+00
  0.00000000E+00  0.00000000E+00  0.00000000E+00
  0.00000000E+00  0.00000000E+00  0.00000000E+00
  0.00000000E+00  0.00000000E+00  0.00000000E+00
  0.00000000E+00  0.00000000E+00  0.00000000E+00
  0.00000000E+00  0.00000000E+00  0.00000000E+00
  0.00000000E+00  0.00000000E+00  0.00000000E+00
  0.00000000E+00  0.00000000E+00  0.00000000E+00
  0.00000000E+00  0.00000000E+00  0.00000000E+00
  0.00000000E+00  0.00000000E+00  0.00000000E+00
  0.00000000E+00  0.00000000E+00  0.00000000E+00
  0.00000000E+00  0.00000000E+00  0.00000000E+00
  0.00000000E+00  0.00000000E+00  0.00000000E+00
  0.00000000E+00  0.00000000E+00  0.00000000E+00
  0.00000000E+00  0.00000000E+00  0.00000000E+00
  0.00000000E+00  0.00000000E+00  0.00000000E+00
  0.00000000E+00  0.00000000E+00  0.00000000E+00
  0.00000000E+00  0.00000000E+00  0.00000000E+00
  0.00000000E+00  0.00000000E+00  0.00000000E+00
  0.00000000E+00  0.00000000E+00  0.00000000E+00
  0.00000000E+00  0.00000000E+00  0.00000000E+00
  0.00000000E+00  0.00000000E+00  0.00000000E+00
  0.00000000E+00  0.00000000E+00  0.00000000E+00
  0.00000000E+00  0.00000000E+00  0.00000000E+00
  0.00000000E+00  0.00000000E+00  0.00000000E+00
  0.00000000E+00  0.00000000E+00  0.00000000E+00
  0.00000000E+00  0.00000000E+00  0.00000000E+00
  0.00000000E+00  0.00000000E+00  0.00000000E+00
  0.00000000E+00  0.00000000E+00  0.00000000E+00
  0.00000000E+00  0.00000000E+00  0.00000000E+00
  0.00000000E+00  0.00000000E+00  0.00000000E+00
  0.00000000E+00  0.00000000E+00  0.00000000E+00
  0.00000000E+00  0.00000000E+00  0.00000000E+00
  0.00000000E+00  0.00000000E+00  0.00000000E+00
  0.00000000E+00  0.00000000E+00  0.00000000E+00
  0.00000000E+00  0.00000000E+00  0.00000000E+00
  0.00000000E+00  0.00000000E+00  0.00000000E+00
  0.00000000E+00  0.00000000E+00  0.00000000E+00
  0.00000000E+00  0.00000000E+00  0.00000000E+00
  0.00000000E+00  0.00000000E+00  0.00000000E+00
  0.00000000E+00  0.00000000E+00  0.00000000E+00
  0.00000000E+00  0.00000000E+00  0.00000000E+00
  0.00000000E+00  0.00000000E+00  0.00000000E+00
  0.00000000E+00  0.00000000E+00  0.00000000E+00
  0.00000000E+00  0.00000000E+00  0.00000000E+00
  0.00000000E+00  0.00000000E+00  0.00000000E+00
  0.00000000E+00  0.00000000E+00  0.00000000E+00
  0.00000000E+00  0.00000000E+00  0.00000000E+00
  0.00000000E+00  0.00000000E+00  0.00000000E+00
  0.00000000E+00  0.00000000E+00  0.00000000E+00
  0.00000000E+00  0.00000000E+00  0.00000000E+00
  0.00000000E+00  0.00000000E+00  0.00000000E+00
  0.00000000E+00  0.00000000E+00  0.00000000E+00
  0.00000000E+00  0.00000000E+00  0.00000000E+00
  0.00000000E+00  0.00000000E+00  0.00000000E+00
  0.00000000E+00  0.00000000E+00  0.00000000E+00
  0.00000000E+00  0.00000000E+00  0.00000000E+00
  0.00000000E+00  0.00000000E+00  0.00000000E+00
  0.00000000E+00  0.00000000E+00  0.00000000E+00
  0.00000000E+00  0.00000000E+00  0.00000000E+00
  0.00000000E+00  0.00000000E+00  0.00000000E+00
  0.00000000E+00  0.00000000E+00  0.00000000E+00
  0.00000000E+00  0.00000000E+00  0.00000000E+00
  0.00000000E+00  0.00000000E+00  0.00000000E+00
  0.00000000E+00  0.00000000E+00  0.00000000E+00
  0.00000000E+00  0.00000000E+00  0.00000000E+00
