4n                                      
   1.00000000000000     
     7.7781500000000001    0.0000000000000000    0.0000000000000000
    -3.8890750000000001    6.7360755000000001    0.0000000000000000
     0.0000002500000000    0.0000002500000000   26.1140000000000008
   C    Ce   H    O 
     1    16     1    33
Selective dynamics
Direct
  0.5399429801048347  0.5573477406415445  0.5215902580737373   T   T   T
  0.3699009813621714  0.1995390571323128  0.0304000000000002   F   F   F
  0.8699009813621715  0.1995390571323128  0.0304000000000002   F   F   F
  0.3699009813621710  0.6995390571323127  0.0304000000000002   F   F   F
  0.8699009813621713  0.6995390571323127  0.0304000000000002   F   F   F
  0.0365609998568433  0.5328790706713562  0.1520000000000010   F   F   F
  0.5365609998568388  0.5328790706713562  0.1520000000000010   F   F   F
  0.0365609998568389  0.0328790706713562  0.1520000000000010   F   F   F
  0.5365609998568388  0.0328790706713562  0.1520000000000010   F   F   F
  0.2004350154159415  0.8628932208760250  0.2703616381704943   T   T   T
  0.7026390974301604  0.3660094915410226  0.2724788192143726   T   T   T
  0.2024020767078069  0.3649533773408641  0.2737723473565255   T   T   T
  0.7012821046184968  0.8649370697218643  0.2752942151870648   T   T   T
  0.3673642929638362  0.1805622157158750  0.3900042843279090   T   T   T
  0.8798352750839795  0.6999360899729281  0.3926745049985591   T   T   T
  0.3542889062216633  0.7065014486035823  0.3944140419541493   T   T   T
  0.8616705956143786  0.2068349144738532  0.3984243083431078   T   T   T
  0.0550486634826056  0.0204771396812856  0.4805079063227021   T   T   T
  0.2032209767384927  0.3662190537475638  0.0000000000000000   F   F   F
  0.7032209767384927  0.8662190537475637  0.0000000000000000   F   F   F
  0.7032209767384927  0.3662190537475638  0.0000000000000000   F   F   F
  0.2032209767384927  0.8662190537475637  0.0000000000000000   F   F   F
  0.0365609859858352  0.5328790605170468  0.0608000000000004   F   F   F
  0.5365609859858367  0.5328790605170468  0.0608000000000004   F   F   F
  0.0365609859858368  0.0328790605170752  0.0608000000000004   F   F   F
  0.5365609859858367  0.0328790605170752  0.0608000000000004   F   F   F
  0.8699009952331949  0.6995390672865938  0.1216000000000008   F   F   F
  0.8699009952331810  0.1995390672865938  0.1216000000000008   F   F   F
  0.3699009952331808  0.1995390672865938  0.1216000000000008   F   F   F
  0.3699009952332233  0.6995390672865938  0.1216000000000008   F   F   F
  0.2032210044805184  0.8662190740561262  0.1824000000000012   F   F   F
  0.7032210044805752  0.8662190740561262  0.1824000000000012   F   F   F
  0.2032210044805187  0.3662190740561257  0.1824000000000012   F   F   F
  0.7032210044805183  0.3662190740561257  0.1824000000000012   F   F   F
  0.0345807470512674  0.5286063712091686  0.2414222357612087   T   T   T
  0.5398553148933976  0.0321759668559507  0.2425584201420211   T   T   T
  0.0330844711250310  0.0342351251844012  0.2428587586622389   T   T   T
  0.5340778226209550  0.5325156627232984  0.2432311449883136   T   T   T
  0.8707945994100302  0.6969896925665293  0.3004540189867812   T   T   T
  0.3682411049511989  0.1929692826102497  0.3006891585526921   T   T   T
  0.3608869858224752  0.6958338209645161  0.3023364153542956   T   T   T
  0.8726501840149639  0.2070311518688824  0.3060051244938911   T   T   T
  0.1979416931812764  0.8732889515971398  0.3610460149407085   T   T   T
  0.6803836028749636  0.3712509451574633  0.3655861132338296   T   T   T
  0.6968775892237616  0.8547974818393262  0.3668947325643898   T   T   T
  0.2281522273331002  0.3601100444774699  0.3692915821005258   T   T   T
  0.5139245871164376  0.0437496158248476  0.4307896084472261   T   T   T
  0.0324891638021835  0.5340347827522864  0.4303498079067289   T   T   T
  0.0436168467768262  0.0331601268389933  0.4438323551157234   T   T   T
  0.5377201176557491  0.5424079039712719  0.4764359880025185   T   T   T
  0.5421487398055854  0.5724521514545869  0.5661168147964053   T   T   T
 
  0.00000000E+00  0.00000000E+00  0.00000000E+00
  0.00000000E+00  0.00000000E+00  0.00000000E+00
  0.00000000E+00  0.00000000E+00  0.00000000E+00
  0.00000000E+00  0.00000000E+00  0.00000000E+00
  0.00000000E+00  0.00000000E+00  0.00000000E+00
  0.00000000E+00  0.00000000E+00  0.00000000E+00
  0.00000000E+00  0.00000000E+00  0.00000000E+00
  0.00000000E+00  0.00000000E+00  0.00000000E+00
  0.00000000E+00  0.00000000E+00  0.00000000E+00
  0.00000000E+00  0.00000000E+00  0.00000000E+00
  0.00000000E+00  0.00000000E+00  0.00000000E+00
  0.00000000E+00  0.00000000E+00  0.00000000E+00
  0.00000000E+00  0.00000000E+00  0.00000000E+00
  0.00000000E+00  0.00000000E+00  0.00000000E+00
  0.00000000E+00  0.00000000E+00  0.00000000E+00
  0.00000000E+00  0.00000000E+00  0.00000000E+00
  0.00000000E+00  0.00000000E+00  0.00000000E+00
  0.00000000E+00  0.00000000E+00  0.00000000E+00
  0.00000000E+00  0.00000000E+00  0.00000000E+00
  0.00000000E+00  0.00000000E+00  0.00000000E+00
  0.00000000E+00  0.00000000E+00  0.00000000E+00
  0.00000000E+00  0.00000000E+00  0.00000000E+00
  0.00000000E+00  0.00000000E+00  0.00000000E+00
  0.00000000E+00  0.00000000E+00  0.00000000E+00
  0.00000000E+00  0.00000000E+00  0.00000000E+00
  0.00000000E+00  0.00000000E+00  0.00000000E+00
  0.00000000E+00  0.00000000E+00  0.00000000E+00
  0.00000000E+00  0.00000000E+00  0.00000000E+00
  0.00000000E+00  0.00000000E+00  0.00000000E+00
  0.00000000E+00  0.00000000E+00  0.00000000E+00
  0.00000000E+00  0.00000000E+00  0.00000000E+00
  0.00000000E+00  0.00000000E+00  0.00000000E+00
  0.00000000E+00  0.00000000E+00  0.00000000E+00
  0.00000000E+00  0.00000000E+00  0.00000000E+00
  0.00000000E+00  0.00000000E+00  0.00000000E+00
  0.00000000E+00  0.00000000E+00  0.00000000E+00
  0.00000000E+00  0.00000000E+00  0.00000000E+00
  0.00000000E+00  0.00000000E+00  0.00000000E+00
  0.00000000E+00  0.00000000E+00  0.00000000E+00
  0.00000000E+00  0.00000000E+00  0.00000000E+00
  0.00000000E+00  0.00000000E+00  0.00000000E+00
  0.00000000E+00  0.00000000E+00  0.00000000E+00
  0.00000000E+00  0.00000000E+00  0.00000000E+00
  0.00000000E+00  0.00000000E+00  0.00000000E+00
  0.00000000E+00  0.00000000E+00  0.00000000E+00
  0.00000000E+00  0.00000000E+00  0.00000000E+00
  0.00000000E+00  0.00000000E+00  0.00000000E+00
  0.00000000E+00  0.00000000E+00  0.00000000E+00
  0.00000000E+00  0.00000000E+00  0.00000000E+00
  0.00000000E+00  0.00000000E+00  0.00000000E+00
  0.00000000E+00  0.00000000E+00  0.00000000E+00
