comment                                 
   1.00000000000000     
     6.7360755000000001    0.0000000000000000    0.0000000000000000
     3.3680377500000001    5.8336125000000001    0.0000000000000000
     0.0000002500000000    0.0000002500000000   26.1140000000000008
   Ce   H    O 
    12     1    24
Selective dynamics
Direct
  0.9734172231163710  0.3334797141875328  0.0304000000000003   F   F   F
  0.3067505564496978  0.6668130475208649  0.0304000000000003   F   F   F
  0.6400838897830352  0.0001463808541970  0.0304000000000003   F   F   F
  0.3067638955053194  0.3334663964877234  0.1520000000000016   F   F   F
  0.6400972288386555  0.6667997298210580  0.1520000000000016   F   F   F
  0.9734305621719880  0.0001330631543865  0.1520000000000016   F   F   F
  0.9717568834662438  0.6682030146246634  0.2722855276585853   T   T   T
  0.6408868725582914  0.3302040078199274  0.2722900236266582   T   T   T
  0.3073234985454930 -0.0007627576036020  0.2726861130899975   T   T   T
  0.9716770231461951  0.3489177002772113  0.3913997840697346   T   T   T
  0.3220437623201274  0.6475911221665924  0.3914586986031083   T   T   T
  0.6259553105509956  0.9984766516962896  0.3946740660853087   T   T   T
  0.9934977362246229  0.9948678205864764  0.4753565225272020   T   T   T
  0.3067772216858274  0.0001197102791224  0.0000000000000000   F   F   F
  0.6401105550191627  0.3334530436124521  0.0000000000000000   F   F   F
  0.9734438883524970  0.6667863769457890  0.0000000000000000   F   F   F
  0.3067638912136116  0.3334663847625746  0.0608000000000006   F   F   F
  0.6400972245469492  0.6667997180959020  0.0608000000000006   F   F   F
  0.9734305578802848  0.0001330514292377  0.0608000000000006   F   F   F
  0.9734172274080468  0.3334797259126975  0.1216000000000012   F   F   F
  0.3067505607413981  0.6668130592460410  0.1216000000000012   F   F   F
  0.6400838940747337  0.0001463925793530  0.1216000000000012   F   F   F
  0.6401105636025690  0.3334530670627630  0.1824000000000020   F   F   F
  0.9734438969359034  0.6667864003960938  0.1824000000000020   F   F   F
  0.3067772302692333  0.0001197337294272  0.1824000000000020   F   F   F
  0.3055650206608593  0.3342129782410587  0.2418638747403980   T   T   T
  0.6402126771808726  0.6648346054434008  0.2418412233269281   T   T   T
  0.9746901717176087  0.9993854773704864  0.2429931447035353   T   T   T
  0.6321435852259152  0.9991537983540574  0.3017309966480218   T   T   T
  0.9738266145227793  0.3394552814005132  0.3028942218923890   T   T   T
  0.3148488464289336  0.6585074102156625  0.3029963382154370   T   T   T
  0.6539801579149271  0.3230419478818085  0.3623566745542713   T   T   T
  0.9791919094840014  0.6726382888584266  0.3621692125006956   T   T   T
  0.2838514667342464 -0.0007371300801656  0.3636643069765818   T   T   T
  0.2878677146541931  0.3519410847028533  0.4248810498507871   T   T   T
  0.6411204180433130  0.6448633471232474  0.4245507711791562   T   T   T
  0.9858091479383315  0.9962177582965938  0.4381629136550549   T   T   T
 
  0.00000000E+00  0.00000000E+00  0.00000000E+00
  0.00000000E+00  0.00000000E+00  0.00000000E+00
  0.00000000E+00  0.00000000E+00  0.00000000E+00
  0.00000000E+00  0.00000000E+00  0.00000000E+00
  0.00000000E+00  0.00000000E+00  0.00000000E+00
  0.00000000E+00  0.00000000E+00  0.00000000E+00
  0.00000000E+00  0.00000000E+00  0.00000000E+00
  0.00000000E+00  0.00000000E+00  0.00000000E+00
  0.00000000E+00  0.00000000E+00  0.00000000E+00
  0.00000000E+00  0.00000000E+00  0.00000000E+00
  0.00000000E+00  0.00000000E+00  0.00000000E+00
  0.00000000E+00  0.00000000E+00  0.00000000E+00
  0.00000000E+00  0.00000000E+00  0.00000000E+00
  0.00000000E+00  0.00000000E+00  0.00000000E+00
  0.00000000E+00  0.00000000E+00  0.00000000E+00
  0.00000000E+00  0.00000000E+00  0.00000000E+00
  0.00000000E+00  0.00000000E+00  0.00000000E+00
  0.00000000E+00  0.00000000E+00  0.00000000E+00
  0.00000000E+00  0.00000000E+00  0.00000000E+00
  0.00000000E+00  0.00000000E+00  0.00000000E+00
  0.00000000E+00  0.00000000E+00  0.00000000E+00
  0.00000000E+00  0.00000000E+00  0.00000000E+00
  0.00000000E+00  0.00000000E+00  0.00000000E+00
  0.00000000E+00  0.00000000E+00  0.00000000E+00
  0.00000000E+00  0.00000000E+00  0.00000000E+00
  0.00000000E+00  0.00000000E+00  0.00000000E+00
  0.00000000E+00  0.00000000E+00  0.00000000E+00
  0.00000000E+00  0.00000000E+00  0.00000000E+00
  0.00000000E+00  0.00000000E+00  0.00000000E+00
  0.00000000E+00  0.00000000E+00  0.00000000E+00
  0.00000000E+00  0.00000000E+00  0.00000000E+00
  0.00000000E+00  0.00000000E+00  0.00000000E+00
  0.00000000E+00  0.00000000E+00  0.00000000E+00
  0.00000000E+00  0.00000000E+00  0.00000000E+00
  0.00000000E+00  0.00000000E+00  0.00000000E+00
  0.00000000E+00  0.00000000E+00  0.00000000E+00
  0.00000000E+00  0.00000000E+00  0.00000000E+00
