cos9n                                   
   1.00000000000000     
    11.6671999999999993    0.0000000000000000    0.0000000000000000
    -5.8335999999999997   10.1040919999999996    0.0000000000000000
     0.0000010000000000    0.0000010000000000   26.1140000000000008
   C    Ce   H    O 
     1    36     1    73
Selective dynamics
Direct
  0.5934445465080986  0.7773927221051520  0.5028495068925604   T   T   T
  0.2253399999999864  0.7803699999999659  0.0304000000000002   F   F   F
  0.2253400000000022  0.4470400000000008  0.0304000000000002   F   F   F
  0.5586800000000025  0.4470400000000008  0.0304000000000002   F   F   F
  0.5586800000000025  0.7803699999999659  0.0304000000000002   F   F   F
  0.8920099999999813  0.7803699999999659  0.0304000000000002   F   F   F
  0.8920099999999995  0.4470400000000008  0.0304000000000002   F   F   F
  0.2253400000000027  0.1137099999999976  0.0304000000000002   F   F   F
  0.5586800000000025  0.1137099999999976  0.0304000000000002   F   F   F
  0.8920100000000040  0.1137099999999976  0.0304000000000002   F   F   F
  0.0031199999999952  0.3359299999999976  0.1520000000000010   F   F   F
  0.0031200000000032  0.6692699999999938  0.1520000000000010   F   F   F
  0.3364499999999975  0.6692699999999938  0.1520000000000010   F   F   F
  0.3364499999999929  0.3359299999999976  0.1520000000000010   F   F   F
  0.6697800000000029  0.3359299999999976  0.1520000000000010   F   F   F
  0.6697799999999926  0.6692699999999938  0.1520000000000010   F   F   F
  0.0031200000000027  0.0026000000000010  0.1520000000000010   F   F   F
  0.3364499999999992  0.0026000000000010  0.1520000000000010   F   F   F
  0.6697800000000029  0.0026000000000010  0.1520000000000010   F   F   F
  0.1137098461437930  0.8905919421301042  0.2723241714120107   T   T   T
  0.7819040323153218  0.5586859065628470  0.2723317187413687   T   T   T
  0.7808742061978370  0.2253466572699216  0.2729313572366485   T   T   T
  0.4471143680774601  0.8912926729234308  0.2730981498916932   T   T   T
  0.4469922196621546  0.2252790442343720  0.2732005147154681   T   T   T
  0.1149078327809749  0.5575382996560140  0.2733209935285668   T   T   T
  0.7805261010432364  0.8909569550697007  0.2736287516122143   T   T   T
  0.1149547117410286  0.2255129469853805  0.2739931014702759   T   T   T
  0.4470570444125682  0.5580089361758592  0.2741894946809844   T   T   T
  0.5698745885093419  0.4532905651591387  0.3924705231108220   T   T   T
  0.2187673362283366  0.1027873654625771  0.3924732192361382   T   T   T
  0.5578699717220297  0.1149284262511325  0.3927329337785991   T   T   T
  0.8920782214291800  0.4461669191631071  0.3932813374603676   T   T   T
  0.2257028003830041  0.7803405093413109  0.3934705116960774   T   T   T
  0.8902247877126193  0.1137906157026875  0.3936629838117613   T   T   T
  0.8930244583412119  0.7794409413096453  0.3940974377537497   T   T   T
  0.5577664571626523  0.7825765759756452  0.3947406740210692   T   T   T
  0.2218150691187371  0.4501664958023157  0.3963085529768583   T   T   T
  0.3450063612546225  0.3259699384044757  0.4769287080616201   T   T   T
  0.1142200000000031  0.5581600000000009  0.0000000000000000   F   F   F
  0.1142200000000036  0.8914899999999961  0.0000000000000000   F   F   F
  0.4475600000000021  0.8914899999999961  0.0000000000000000   F   F   F
  0.4475600000000027  0.2248299999999969  0.0000000000000000   F   F   F
  0.7808899999999994  0.5581600000000009  0.0000000000000000   F   F   F
  0.7808899999999928  0.8914899999999961  0.0000000000000000   F   F   F
  0.7808899999999996  0.2248299999999969  0.0000000000000000   F   F   F
  0.4475600000000028  0.5581600000000009  0.0000000000000000   F   F   F
  0.1142200000000026  0.2248299999999969  0.0000000000000000   F   F   F
  0.3364499999999988  0.3359299999999976  0.0608000000000004   F   F   F
  0.0031200000000024  0.3359299999999976  0.0608000000000004   F   F   F
  0.0031199999999933  0.6692699999999790  0.0608000000000004   F   F   F
  0.3364499999999929  0.6692699999999790  0.0608000000000004   F   F   F
  0.6697800000000029  0.3359299999999976  0.0608000000000004   F   F   F
  0.6697800000000029  0.6692699999999790  0.0608000000000004   F   F   F
  0.0031200000000027  0.0026000000000010  0.0608000000000004   F   F   F
  0.3364499999999992  0.0026000000000010  0.0608000000000004   F   F   F
  0.6697800000000045  0.0026000000000010  0.0608000000000004   F   F   F
  0.5586800000000025  0.7803699999999978  0.1216000000000008   F   F   F
  0.5586799999999806  0.4470400000000012  0.1216000000000008   F   F   F
  0.2253400000000028  0.4470400000000012  0.1216000000000008   F   F   F
  0.8920099999999982  0.7803699999999978  0.1216000000000008   F   F   F
  0.8920099999999982  0.4470400000000012  0.1216000000000008   F   F   F
  0.2253400000000031  0.1137099999999977  0.1216000000000008   F   F   F
  0.8920099999999970  0.1137099999999977  0.1216000000000008   F   F   F
  0.5586800000000023  0.1137099999999977  0.1216000000000008   F   F   F
  0.2253400000000028  0.7803699999999978  0.1216000000000008   F   F   F
  0.1142200000000031  0.5581600000000009  0.1824000000000012   F   F   F
  0.4475600000000026  0.5581600000000009  0.1824000000000012   F   F   F
  0.4475600000000026  0.8914899999999975  0.1824000000000012   F   F   F
  0.1142200000000031  0.8914899999999975  0.1824000000000012   F   F   F
  0.7808899999999993  0.5581600000000009  0.1824000000000012   F   F   F
  0.7808899999999993  0.8914899999999975  0.1824000000000012   F   F   F
  0.4475600000000028  0.2248299999999971  0.1824000000000012   F   F   F
  0.1142200000000031  0.2248299999999971  0.1824000000000012   F   F   F
  0.7808899999999990  0.2248299999999971  0.1824000000000012   F   F   F
  0.3363094199290322  0.0023039043592694  0.2424708568209623   T   T   T
  0.6698420549505958  0.3359422146750295  0.2424875488810480   T   T   T
  0.0033409474165107  0.6693084436831555  0.2426033972612861   T   T   T
  0.3370063883045983  0.6697311208044816  0.2428056317353718   T   T   T
  0.0026330501336926  0.3349631896897406  0.2428759860296386   T   T   T
  0.0022972160247063  0.0025347732606315  0.2428887755093253   T   T   T
  0.6698640827191060  0.6699774955005764  0.2428862988760054   T   T   T
  0.3368458225715827  0.3356196620721824  0.2434479915830884   T   T   T
  0.6696897094774426  0.0026680740571541  0.2435061884876837   T   T   T
  0.2252613528468814  0.4476568900716416  0.3030625199069573   T   T   T
  0.8921609231130884  0.4463556781731939  0.3034085497083958   T   T   T
  0.2243575465938248  0.1102652440168490  0.3034169348424313   T   T   T
  0.5618522396943521  0.4483606125639385  0.3035063623393136   T   T   T
  0.2261982048924972  0.7805380624340946  0.3036983011821169   T   T   T
  0.8917068790800881  0.7806552220107429  0.3038590225256702   T   T   T
  0.5561188433471999  0.1158444733923352  0.3041153166439390   T   T   T
  0.5569133234991743  0.7786118029872821  0.3046329282879880   T   T   T
  0.8935377960382112  0.1146401606168106  0.3049544726407271   T   T   T
  0.7768455696641752  0.2234858125767857  0.3616968682745444   T   T   T
  0.7836160757061744  0.5584899854048468  0.3621456098907411   T   T   T
  0.4497902900529328  0.8956584786075520  0.3623138092585171   T   T   T
  0.1133575287181897  0.8892025775446321  0.3623932619562069   T   T   T
  0.1109323507257490  0.5607227175862565  0.3633192845155283   T   T   T
  0.7792000502532597  0.8907121489778165  0.3638340723561332   T   T   T
  0.4426727500487168  0.2297917052965234  0.3640413449962664   T   T   T
  0.1193126205589391  0.2209017860810528  0.3646585490989367   T   T   T
  0.4522072550238176  0.5547670575961190  0.3653954495695262   T   T   T
  0.6696172855512993  0.3371955573551402  0.4231831653102399   T   T   T
  0.3348520059203340  0.0030352974179684  0.4231783545384127   T   T   T
  0.6698974634137731  0.0060345680417156  0.4235192019344102   T   T   T
  0.0022297634048391  0.6701801645655407  0.4245494771549000   T   T   T
  0.0030856548634086  0.9980999597749206  0.4245091600265922   T   T   T
  0.9872381200961280  0.3269788364204828  0.4245027390660935   T   T   T
  0.3428630240102578  0.6847079305852810  0.4247786786276128   T   T   T
  0.6765861610643097  0.6667662728078457  0.4251303684131751   T   T   T
  0.3414318108173359  0.3309051325436333  0.4398078833132029   T   T   T
  0.6213051764773567  0.7719708142387199  0.5443839778587162   T   T   T
 
  0.00000000E+00  0.00000000E+00  0.00000000E+00
  0.00000000E+00  0.00000000E+00  0.00000000E+00
  0.00000000E+00  0.00000000E+00  0.00000000E+00
  0.00000000E+00  0.00000000E+00  0.00000000E+00
  0.00000000E+00  0.00000000E+00  0.00000000E+00
  0.00000000E+00  0.00000000E+00  0.00000000E+00
  0.00000000E+00  0.00000000E+00  0.00000000E+00
  0.00000000E+00  0.00000000E+00  0.00000000E+00
  0.00000000E+00  0.00000000E+00  0.00000000E+00
  0.00000000E+00  0.00000000E+00  0.00000000E+00
  0.00000000E+00  0.00000000E+00  0.00000000E+00
  0.00000000E+00  0.00000000E+00  0.00000000E+00
  0.00000000E+00  0.00000000E+00  0.00000000E+00
  0.00000000E+00  0.00000000E+00  0.00000000E+00
  0.00000000E+00  0.00000000E+00  0.00000000E+00
  0.00000000E+00  0.00000000E+00  0.00000000E+00
  0.00000000E+00  0.00000000E+00  0.00000000E+00
  0.00000000E+00  0.00000000E+00  0.00000000E+00
  0.00000000E+00  0.00000000E+00  0.00000000E+00
  0.00000000E+00  0.00000000E+00  0.00000000E+00
  0.00000000E+00  0.00000000E+00  0.00000000E+00
  0.00000000E+00  0.00000000E+00  0.00000000E+00
  0.00000000E+00  0.00000000E+00  0.00000000E+00
  0.00000000E+00  0.00000000E+00  0.00000000E+00
  0.00000000E+00  0.00000000E+00  0.00000000E+00
  0.00000000E+00  0.00000000E+00  0.00000000E+00
  0.00000000E+00  0.00000000E+00  0.00000000E+00
  0.00000000E+00  0.00000000E+00  0.00000000E+00
  0.00000000E+00  0.00000000E+00  0.00000000E+00
  0.00000000E+00  0.00000000E+00  0.00000000E+00
  0.00000000E+00  0.00000000E+00  0.00000000E+00
  0.00000000E+00  0.00000000E+00  0.00000000E+00
  0.00000000E+00  0.00000000E+00  0.00000000E+00
  0.00000000E+00  0.00000000E+00  0.00000000E+00
  0.00000000E+00  0.00000000E+00  0.00000000E+00
  0.00000000E+00  0.00000000E+00  0.00000000E+00
  0.00000000E+00  0.00000000E+00  0.00000000E+00
  0.00000000E+00  0.00000000E+00  0.00000000E+00
  0.00000000E+00  0.00000000E+00  0.00000000E+00
  0.00000000E+00  0.00000000E+00  0.00000000E+00
  0.00000000E+00  0.00000000E+00  0.00000000E+00
  0.00000000E+00  0.00000000E+00  0.00000000E+00
  0.00000000E+00  0.00000000E+00  0.00000000E+00
  0.00000000E+00  0.00000000E+00  0.00000000E+00
  0.00000000E+00  0.00000000E+00  0.00000000E+00
  0.00000000E+00  0.00000000E+00  0.00000000E+00
  0.00000000E+00  0.00000000E+00  0.00000000E+00
  0.00000000E+00  0.00000000E+00  0.00000000E+00
  0.00000000E+00  0.00000000E+00  0.00000000E+00
  0.00000000E+00  0.00000000E+00  0.00000000E+00
  0.00000000E+00  0.00000000E+00  0.00000000E+00
  0.00000000E+00  0.00000000E+00  0.00000000E+00
  0.00000000E+00  0.00000000E+00  0.00000000E+00
  0.00000000E+00  0.00000000E+00  0.00000000E+00
  0.00000000E+00  0.00000000E+00  0.00000000E+00
  0.00000000E+00  0.00000000E+00  0.00000000E+00
  0.00000000E+00  0.00000000E+00  0.00000000E+00
  0.00000000E+00  0.00000000E+00  0.00000000E+00
  0.00000000E+00  0.00000000E+00  0.00000000E+00
  0.00000000E+00  0.00000000E+00  0.00000000E+00
  0.00000000E+00  0.00000000E+00  0.00000000E+00
  0.00000000E+00  0.00000000E+00  0.00000000E+00
  0.00000000E+00  0.00000000E+00  0.00000000E+00
  0.00000000E+00  0.00000000E+00  0.00000000E+00
  0.00000000E+00  0.00000000E+00  0.00000000E+00
  0.00000000E+00  0.00000000E+00  0.00000000E+00
  0.00000000E+00  0.00000000E+00  0.00000000E+00
  0.00000000E+00  0.00000000E+00  0.00000000E+00
  0.00000000E+00  0.00000000E+00  0.00000000E+00
  0.00000000E+00  0.00000000E+00  0.00000000E+00
  0.00000000E+00  0.00000000E+00  0.00000000E+00
  0.00000000E+00  0.00000000E+00  0.00000000E+00
  0.00000000E+00  0.00000000E+00  0.00000000E+00
  0.00000000E+00  0.00000000E+00  0.00000000E+00
  0.00000000E+00  0.00000000E+00  0.00000000E+00
  0.00000000E+00  0.00000000E+00  0.00000000E+00
  0.00000000E+00  0.00000000E+00  0.00000000E+00
  0.00000000E+00  0.00000000E+00  0.00000000E+00
  0.00000000E+00  0.00000000E+00  0.00000000E+00
  0.00000000E+00  0.00000000E+00  0.00000000E+00
  0.00000000E+00  0.00000000E+00  0.00000000E+00
  0.00000000E+00  0.00000000E+00  0.00000000E+00
  0.00000000E+00  0.00000000E+00  0.00000000E+00
  0.00000000E+00  0.00000000E+00  0.00000000E+00
  0.00000000E+00  0.00000000E+00  0.00000000E+00
  0.00000000E+00  0.00000000E+00  0.00000000E+00
  0.00000000E+00  0.00000000E+00  0.00000000E+00
  0.00000000E+00  0.00000000E+00  0.00000000E+00
  0.00000000E+00  0.00000000E+00  0.00000000E+00
  0.00000000E+00  0.00000000E+00  0.00000000E+00
  0.00000000E+00  0.00000000E+00  0.00000000E+00
  0.00000000E+00  0.00000000E+00  0.00000000E+00
  0.00000000E+00  0.00000000E+00  0.00000000E+00
  0.00000000E+00  0.00000000E+00  0.00000000E+00
  0.00000000E+00  0.00000000E+00  0.00000000E+00
  0.00000000E+00  0.00000000E+00  0.00000000E+00
  0.00000000E+00  0.00000000E+00  0.00000000E+00
  0.00000000E+00  0.00000000E+00  0.00000000E+00
  0.00000000E+00  0.00000000E+00  0.00000000E+00
  0.00000000E+00  0.00000000E+00  0.00000000E+00
  0.00000000E+00  0.00000000E+00  0.00000000E+00
  0.00000000E+00  0.00000000E+00  0.00000000E+00
  0.00000000E+00  0.00000000E+00  0.00000000E+00
  0.00000000E+00  0.00000000E+00  0.00000000E+00
  0.00000000E+00  0.00000000E+00  0.00000000E+00
  0.00000000E+00  0.00000000E+00  0.00000000E+00
  0.00000000E+00  0.00000000E+00  0.00000000E+00
  0.00000000E+00  0.00000000E+00  0.00000000E+00
  0.00000000E+00  0.00000000E+00  0.00000000E+00
  0.00000000E+00  0.00000000E+00  0.00000000E+00
  0.00000000E+00  0.00000000E+00  0.00000000E+00
