ov9n                                    
   1.00000000000000     
    11.6671999999999993    0.0000000000000000    0.0000000000000000
    -5.8335999999999997   10.1040919999999996    0.0000000000000000
     0.0000010000000000    0.0000010000000000   26.1140000000000008
   Ce   H    O 
    36     1    71
Selective dynamics
Direct
  0.2253399999999957  0.7803699999999765  0.0304000000000002   F   F   F
  0.2253400000000028  0.4470400000000012  0.0304000000000002   F   F   F
  0.5586800000000025  0.4470400000000012  0.0304000000000002   F   F   F
  0.5586800000000025  0.7803699999999765  0.0304000000000002   F   F   F
  0.8920099999999991  0.7803699999999765  0.0304000000000002   F   F   F
  0.8920099999999991  0.4470400000000012  0.0304000000000002   F   F   F
  0.2253400000000028  0.1137099999999975  0.0304000000000002   F   F   F
  0.5586800000000025  0.1137099999999975  0.0304000000000002   F   F   F
  0.8920099999999991  0.1137099999999975  0.0304000000000002   F   F   F
  0.0031200000000027  0.3359299999999976  0.1520000000000010   F   F   F
  0.0031200000000027  0.6692699999999974  0.1520000000000010   F   F   F
  0.3364499999999992  0.6692699999999974  0.1520000000000010   F   F   F
  0.3364499999999992  0.3359299999999976  0.1520000000000010   F   F   F
  0.6697800000000029  0.3359299999999976  0.1520000000000010   F   F   F
  0.6697800000000029  0.6692699999999974  0.1520000000000010   F   F   F
  0.0031200000000027  0.0026000000000010  0.1520000000000010   F   F   F
  0.3364499999999992  0.0026000000000010  0.1520000000000010   F   F   F
  0.6697800000000029  0.0026000000000010  0.1520000000000010   F   F   F
  0.7800560553682345  0.5586044017590055  0.2739786967367479   T   T   T
  0.1142390788411589  0.8908880573109670  0.2717662704063457   T   T   T
  0.4468849521506755  0.8916278246509322  0.2727104378512450   T   T   T
  0.7806973520935827  0.2251388484342698  0.2732865065712460   T   T   T
  0.4471364744211570  0.2240026266271471  0.2725390690952878   T   T   T
  0.1142766121058543  0.5593405601227985  0.2723821156015021   T   T   T
  0.7807170893604720  0.8902860879939283  0.2748290508234845   T   T   T
  0.4481696383553242  0.5585062251018371  0.2744566093223639   T   T   T
  0.1157004864253821  0.2249332626737868  0.2736751505599386   T   T   T
  0.5555075020521798  0.4308395316543496  0.3931985371385807   T   T   T
  0.2217826254442627  0.1043885285677533  0.3937152188523854   T   T   T
  0.5622014890844227  0.1150396690041759  0.3948581389636630   T   T   T
  0.2227299607714670  0.7779188346717305  0.3948697014907978   T   T   T
  0.8920484211285924  0.4466350722828167  0.3940474787886714   T   T   T
  0.8938501140924515  0.1154645225802398  0.3943542497642554   T   T   T
  0.5489931855245089  0.7900000617686658  0.3938203688720918   T   T   T
  0.9092241375495576  0.7885281031742437  0.3935836620880337   T   T   T
  0.2204699511980621  0.4532590491447763  0.3931055350588508   T   T   T
  0.3149641821985512  0.3178812112253055  0.4781799063122421   T   T   T
  0.1142200000000031  0.5581600000000009  0.0000000000000000   F   F   F
  0.1142200000000031  0.8914899999999975  0.0000000000000000   F   F   F
  0.4475600000000028  0.8914899999999975  0.0000000000000000   F   F   F
  0.4475600000000028  0.2248299999999972  0.0000000000000000   F   F   F
  0.7808899999999994  0.5581600000000009  0.0000000000000000   F   F   F
  0.7808899999999994  0.8914899999999975  0.0000000000000000   F   F   F
  0.7808899999999994  0.2248299999999972  0.0000000000000000   F   F   F
  0.4475600000000028  0.5581600000000009  0.0000000000000000   F   F   F
  0.1142200000000031  0.2248299999999972  0.0000000000000000   F   F   F
  0.3364499999999992  0.3359299999999976  0.0608000000000004   F   F   F
  0.0031200000000027  0.3359299999999976  0.0608000000000004   F   F   F
  0.0031200000000027  0.6692699999999974  0.0608000000000004   F   F   F
  0.3364499999999992  0.6692699999999974  0.0608000000000004   F   F   F
  0.6697800000000029  0.3359299999999976  0.0608000000000004   F   F   F
  0.6697800000000029  0.6692699999999974  0.0608000000000004   F   F   F
  0.0031200000000027  0.0026000000000010  0.0608000000000004   F   F   F
  0.3364499999999992  0.0026000000000010  0.0608000000000004   F   F   F
  0.6697800000000171  0.0026000000000010  0.0608000000000004   F   F   F
  0.5586800000000025  0.7803699999999978  0.1216000000000008   F   F   F
  0.5586800000000025  0.4470400000000012  0.1216000000000008   F   F   F
  0.2253400000000028  0.4470400000000012  0.1216000000000008   F   F   F
  0.8920099999999991  0.7803699999999978  0.1216000000000008   F   F   F
  0.8920099999999991  0.4470400000000012  0.1216000000000008   F   F   F
  0.2253400000000028  0.1137099999999975  0.1216000000000008   F   F   F
  0.8920099999999636  0.1137099999999975  0.1216000000000008   F   F   F
  0.5586800000000025  0.1137099999999975  0.1216000000000008   F   F   F
  0.2253400000000028  0.7803699999999978  0.1216000000000008   F   F   F
  0.1142200000000031  0.5581600000000009  0.1824000000000012   F   F   F
  0.4475600000000028  0.5581600000000009  0.1824000000000012   F   F   F
  0.4475600000000028  0.8914899999999975  0.1824000000000012   F   F   F
  0.1142200000000031  0.8914899999999975  0.1824000000000012   F   F   F
  0.7808899999999994  0.5581600000000009  0.1824000000000012   F   F   F
  0.7808899999999994  0.8914899999999975  0.1824000000000012   F   F   F
  0.4475600000000028  0.2248299999999972  0.1824000000000012   F   F   F
  0.1142200000000031  0.2248299999999972  0.1824000000000012   F   F   F
  0.7808899999999994  0.2248299999999972  0.1824000000000012   F   F   F
  0.3370776877127497  0.0027522023469473  0.2423626376997419   T   T   T
  0.6698923856067367  0.3351735761975476  0.2425179095800587   T   T   T
  0.0029716086250389  0.6686177895181089  0.2421453091633623   T   T   T
  0.3362327731303267  0.6692874597930540  0.2423175754668279   T   T   T
  0.0027730195215554  0.3354884419078061  0.2437811229022131   T   T   T
  0.6694115837871664  0.6696197210592842  0.2437933050240062   T   T   T
  0.0028065027510422  0.0032783894490933  0.2425331251055098   T   T   T
  0.3355132758241268  0.3355695794736349  0.2430579773802464   T   T   T
  0.6712943776495379  0.0037016554999099  0.2435805706204164   T   T   T
  0.2292101840118761  0.4514853127346967  0.3041206448471740   T   T   T
  0.5575897660555356  0.4441203394690376  0.3022027859750196   T   T   T
  0.2234698590614101  0.1112913900818597  0.3032529322224988   T   T   T
  0.8889096901380427  0.4499099352658291  0.3044820904869709   T   T   T
  0.2249084968356456  0.7791595823354314  0.3031396173038843   T   T   T
  0.8946987728497220  0.7811555415817182  0.3020083798532909   T   T   T
  0.5591729477869265  0.1156007090410895  0.3042959546140622   T   T   T
  0.8946692845952953  0.1106656503654548  0.3060664120763832   T   T   T
  0.5552142641125783  0.7796167187090575  0.3029657705547208   T   T   T
  0.7856851433049172  0.2268249642661004  0.3613531486419461   T   T   T
  0.4436942478366177  0.8954924537325724  0.3632720435742058   T   T   T
  0.7767387400894989  0.5611285786198721  0.3677343827494823   T   T   T
  0.1193762773132931  0.8924318445939790  0.3622631450016769   T   T   T
  0.7771940165915368  0.8846884447402559  0.3676039186028959   T   T   T
  0.1114542683182407  0.5552555585160377  0.3610331577571415   T   T   T
  0.4399682542957990  0.2196745660127846  0.3639319218979153   T   T   T
  0.1262967827777146  0.2337281298410829  0.3636193151971625   T   T   T
  0.4480855724113937  0.5543226215364001  0.3694835328322199   T   T   T
  0.6750611690638664  0.3248723856913927  0.4261877964324370   T   T   T
  0.3316157322276041  0.0012638684747799  0.4264619390197097   T   T   T
  0.6762106652593260  0.0191478010366239  0.4260621892454850   T   T   T
  0.0153176619668898  0.0179032903918284  0.4259160382145168   T   T   T
  0.0126160179876322  0.6628919785835947  0.4262996734653584   T   T   T
  0.0043914252258404  0.3371144592050541  0.4240247781392554   T   T   T
  0.3182768032524095  0.6633225181322473  0.4266188381894693   T   T   T
  0.3271822723422559  0.3271747171424551  0.4412466103787906   T   T   T
 
  0.00000000E+00  0.00000000E+00  0.00000000E+00
  0.00000000E+00  0.00000000E+00  0.00000000E+00
  0.00000000E+00  0.00000000E+00  0.00000000E+00
  0.00000000E+00  0.00000000E+00  0.00000000E+00
  0.00000000E+00  0.00000000E+00  0.00000000E+00
  0.00000000E+00  0.00000000E+00  0.00000000E+00
  0.00000000E+00  0.00000000E+00  0.00000000E+00
  0.00000000E+00  0.00000000E+00  0.00000000E+00
  0.00000000E+00  0.00000000E+00  0.00000000E+00
  0.00000000E+00  0.00000000E+00  0.00000000E+00
  0.00000000E+00  0.00000000E+00  0.00000000E+00
  0.00000000E+00  0.00000000E+00  0.00000000E+00
  0.00000000E+00  0.00000000E+00  0.00000000E+00
  0.00000000E+00  0.00000000E+00  0.00000000E+00
  0.00000000E+00  0.00000000E+00  0.00000000E+00
  0.00000000E+00  0.00000000E+00  0.00000000E+00
  0.00000000E+00  0.00000000E+00  0.00000000E+00
  0.00000000E+00  0.00000000E+00  0.00000000E+00
  0.00000000E+00  0.00000000E+00  0.00000000E+00
  0.00000000E+00  0.00000000E+00  0.00000000E+00
  0.00000000E+00  0.00000000E+00  0.00000000E+00
  0.00000000E+00  0.00000000E+00  0.00000000E+00
  0.00000000E+00  0.00000000E+00  0.00000000E+00
  0.00000000E+00  0.00000000E+00  0.00000000E+00
  0.00000000E+00  0.00000000E+00  0.00000000E+00
  0.00000000E+00  0.00000000E+00  0.00000000E+00
  0.00000000E+00  0.00000000E+00  0.00000000E+00
  0.00000000E+00  0.00000000E+00  0.00000000E+00
  0.00000000E+00  0.00000000E+00  0.00000000E+00
  0.00000000E+00  0.00000000E+00  0.00000000E+00
  0.00000000E+00  0.00000000E+00  0.00000000E+00
  0.00000000E+00  0.00000000E+00  0.00000000E+00
  0.00000000E+00  0.00000000E+00  0.00000000E+00
  0.00000000E+00  0.00000000E+00  0.00000000E+00
  0.00000000E+00  0.00000000E+00  0.00000000E+00
  0.00000000E+00  0.00000000E+00  0.00000000E+00
  0.00000000E+00  0.00000000E+00  0.00000000E+00
  0.00000000E+00  0.00000000E+00  0.00000000E+00
  0.00000000E+00  0.00000000E+00  0.00000000E+00
  0.00000000E+00  0.00000000E+00  0.00000000E+00
  0.00000000E+00  0.00000000E+00  0.00000000E+00
  0.00000000E+00  0.00000000E+00  0.00000000E+00
  0.00000000E+00  0.00000000E+00  0.00000000E+00
  0.00000000E+00  0.00000000E+00  0.00000000E+00
  0.00000000E+00  0.00000000E+00  0.00000000E+00
  0.00000000E+00  0.00000000E+00  0.00000000E+00
  0.00000000E+00  0.00000000E+00  0.00000000E+00
  0.00000000E+00  0.00000000E+00  0.00000000E+00
  0.00000000E+00  0.00000000E+00  0.00000000E+00
  0.00000000E+00  0.00000000E+00  0.00000000E+00
  0.00000000E+00  0.00000000E+00  0.00000000E+00
  0.00000000E+00  0.00000000E+00  0.00000000E+00
  0.00000000E+00  0.00000000E+00  0.00000000E+00
  0.00000000E+00  0.00000000E+00  0.00000000E+00
  0.00000000E+00  0.00000000E+00  0.00000000E+00
  0.00000000E+00  0.00000000E+00  0.00000000E+00
  0.00000000E+00  0.00000000E+00  0.00000000E+00
  0.00000000E+00  0.00000000E+00  0.00000000E+00
  0.00000000E+00  0.00000000E+00  0.00000000E+00
  0.00000000E+00  0.00000000E+00  0.00000000E+00
  0.00000000E+00  0.00000000E+00  0.00000000E+00
  0.00000000E+00  0.00000000E+00  0.00000000E+00
  0.00000000E+00  0.00000000E+00  0.00000000E+00
  0.00000000E+00  0.00000000E+00  0.00000000E+00
  0.00000000E+00  0.00000000E+00  0.00000000E+00
  0.00000000E+00  0.00000000E+00  0.00000000E+00
  0.00000000E+00  0.00000000E+00  0.00000000E+00
  0.00000000E+00  0.00000000E+00  0.00000000E+00
  0.00000000E+00  0.00000000E+00  0.00000000E+00
  0.00000000E+00  0.00000000E+00  0.00000000E+00
  0.00000000E+00  0.00000000E+00  0.00000000E+00
  0.00000000E+00  0.00000000E+00  0.00000000E+00
  0.00000000E+00  0.00000000E+00  0.00000000E+00
  0.00000000E+00  0.00000000E+00  0.00000000E+00
  0.00000000E+00  0.00000000E+00  0.00000000E+00
  0.00000000E+00  0.00000000E+00  0.00000000E+00
  0.00000000E+00  0.00000000E+00  0.00000000E+00
  0.00000000E+00  0.00000000E+00  0.00000000E+00
  0.00000000E+00  0.00000000E+00  0.00000000E+00
  0.00000000E+00  0.00000000E+00  0.00000000E+00
  0.00000000E+00  0.00000000E+00  0.00000000E+00
  0.00000000E+00  0.00000000E+00  0.00000000E+00
  0.00000000E+00  0.00000000E+00  0.00000000E+00
  0.00000000E+00  0.00000000E+00  0.00000000E+00
  0.00000000E+00  0.00000000E+00  0.00000000E+00
  0.00000000E+00  0.00000000E+00  0.00000000E+00
  0.00000000E+00  0.00000000E+00  0.00000000E+00
  0.00000000E+00  0.00000000E+00  0.00000000E+00
  0.00000000E+00  0.00000000E+00  0.00000000E+00
  0.00000000E+00  0.00000000E+00  0.00000000E+00
  0.00000000E+00  0.00000000E+00  0.00000000E+00
  0.00000000E+00  0.00000000E+00  0.00000000E+00
  0.00000000E+00  0.00000000E+00  0.00000000E+00
  0.00000000E+00  0.00000000E+00  0.00000000E+00
  0.00000000E+00  0.00000000E+00  0.00000000E+00
  0.00000000E+00  0.00000000E+00  0.00000000E+00
  0.00000000E+00  0.00000000E+00  0.00000000E+00
  0.00000000E+00  0.00000000E+00  0.00000000E+00
  0.00000000E+00  0.00000000E+00  0.00000000E+00
  0.00000000E+00  0.00000000E+00  0.00000000E+00
  0.00000000E+00  0.00000000E+00  0.00000000E+00
  0.00000000E+00  0.00000000E+00  0.00000000E+00
  0.00000000E+00  0.00000000E+00  0.00000000E+00
  0.00000000E+00  0.00000000E+00  0.00000000E+00
  0.00000000E+00  0.00000000E+00  0.00000000E+00
  0.00000000E+00  0.00000000E+00  0.00000000E+00
  0.00000000E+00  0.00000000E+00  0.00000000E+00
  0.00000000E+00  0.00000000E+00  0.00000000E+00
