3n                                      
   1.00000000000000     
     6.7360755000000001    0.0000000000000000    0.0000000000000000
     3.3680377500000001    5.8336125000000001    0.0000000000000000
     0.0000002500000000    0.0000002500000000   26.1140000000000008
   Ce   H    O 
    12     1    23
Selective dynamics
Direct
  0.3512590930871564  0.6895887529610398  0.0304000000000004   F   F   F
  0.6845924264204939  0.0229220862943720  0.0304000000000004   F   F   F
  0.0179257597538280  0.3562554196277035  0.0304000000000004   F   F   F
  0.3512724321427778  0.3562421019279001  0.1520000000000018   F   F   F
  0.6846057654761075  0.6895754352612258  0.1520000000000018   F   F   F
  0.0179390988094567  0.0229087685945616  0.1520000000000018   F   F   F
  0.6834764804517980  0.3565987085259857  0.2726056205847477   T   T   T
  0.0200802501958104  0.6884072388963375  0.2725766918164738   T   T   T
  0.3508112547366533  0.0252799411173784  0.2726248249061369   T   T   T
 -0.0158843220984717  0.3679789035054955  0.3933896313081808   T   T   T
  0.3624454835510354  0.7126612995167858  0.3932543179222633   T   T   T
  0.7077300502309694 -0.0106922442700211  0.3929797897944711   T   T   T
  1.0128144770744560  1.0150805298300585  0.4829316143689309   T   T   T
  0.3512857583232855  0.0228954157192903  0.0000000000000000   F   F   F
  0.6846190916566216  0.3562287490526260  0.0000000000000000   F   F   F
  0.0179524249899554  0.6895620823859653  0.0000000000000000   F   F   F
  0.3512724278510487  0.3562420902027653  0.0608000000000008   F   F   F
  0.6846057611844121  0.6895754235360956  0.0608000000000008   F   F   F
  0.0179390945177431  0.0229087568694055  0.0608000000000008   F   F   F
  0.3512590973788272  0.6895887646862389  0.1216000000000015   F   F   F
  0.6845924307121635  0.0229220980195493  0.1216000000000015   F   F   F
  0.0179257640454793  0.3562554313528850  0.1216000000000015   F   F   F
  0.6846191002400257  0.3562287725029546  0.1824000000000024   F   F   F
  0.3512857669066847  0.0228954391696163  0.1824000000000024   F   F   F
  0.0179524335733471  0.6895621058362990  0.1824000000000024   F   F   F
  0.3514684544525402  0.3567762887256585  0.2432710365414304   T   T   T
  0.6848403062689489  0.6893609755637339  0.2413665991338251   T   T   T
  0.0179004584073066  0.0232164396740642  0.2419419015973986   T   T   T
  0.0060884279838211  0.3594927961964338  0.3017295927350139   T   T   T
  0.3541503566227001  0.6995548241769755  0.3016679861100175   T   T   T
  0.6934856925649944  0.0104918867522371  0.3015571286906870   T   T   T
  0.0421438921586077  0.6712744660644475  0.3663685833379500   T   T   T
  0.6672224147458210  0.3517561013326577  0.3662390474341422   T   T   T
  0.3449808974883010  0.0463164435454128  0.3666130182834854   T   T   T
  0.6846701384218356  0.6906510627914945  0.4329496413930575   T   T   T
  0.0145657376781632  0.0225845626023067  0.4458067781998802   T   T   T
 
  0.00000000E+00  0.00000000E+00  0.00000000E+00
  0.00000000E+00  0.00000000E+00  0.00000000E+00
  0.00000000E+00  0.00000000E+00  0.00000000E+00
  0.00000000E+00  0.00000000E+00  0.00000000E+00
  0.00000000E+00  0.00000000E+00  0.00000000E+00
  0.00000000E+00  0.00000000E+00  0.00000000E+00
  0.00000000E+00  0.00000000E+00  0.00000000E+00
  0.00000000E+00  0.00000000E+00  0.00000000E+00
  0.00000000E+00  0.00000000E+00  0.00000000E+00
  0.00000000E+00  0.00000000E+00  0.00000000E+00
  0.00000000E+00  0.00000000E+00  0.00000000E+00
  0.00000000E+00  0.00000000E+00  0.00000000E+00
  0.00000000E+00  0.00000000E+00  0.00000000E+00
  0.00000000E+00  0.00000000E+00  0.00000000E+00
  0.00000000E+00  0.00000000E+00  0.00000000E+00
  0.00000000E+00  0.00000000E+00  0.00000000E+00
  0.00000000E+00  0.00000000E+00  0.00000000E+00
  0.00000000E+00  0.00000000E+00  0.00000000E+00
  0.00000000E+00  0.00000000E+00  0.00000000E+00
  0.00000000E+00  0.00000000E+00  0.00000000E+00
  0.00000000E+00  0.00000000E+00  0.00000000E+00
  0.00000000E+00  0.00000000E+00  0.00000000E+00
  0.00000000E+00  0.00000000E+00  0.00000000E+00
  0.00000000E+00  0.00000000E+00  0.00000000E+00
  0.00000000E+00  0.00000000E+00  0.00000000E+00
  0.00000000E+00  0.00000000E+00  0.00000000E+00
  0.00000000E+00  0.00000000E+00  0.00000000E+00
  0.00000000E+00  0.00000000E+00  0.00000000E+00
  0.00000000E+00  0.00000000E+00  0.00000000E+00
  0.00000000E+00  0.00000000E+00  0.00000000E+00
  0.00000000E+00  0.00000000E+00  0.00000000E+00
  0.00000000E+00  0.00000000E+00  0.00000000E+00
  0.00000000E+00  0.00000000E+00  0.00000000E+00
  0.00000000E+00  0.00000000E+00  0.00000000E+00
  0.00000000E+00  0.00000000E+00  0.00000000E+00
  0.00000000E+00  0.00000000E+00  0.00000000E+00
