comment                                 
   1.00000000000000     
     7.7781500000000001    0.0000000000000000    0.0000000000000000
    -3.8890750000000001    6.7360755000000001    0.0000000000000000
     0.0000002500000000    0.0000002500000000   26.1140000000000008
   Ce   H    O 
    16     1    32
Selective dynamics
Direct
  0.3201884224263836  0.1401571509852957  0.0304000000000002   F   F   F
  0.8201884224263841  0.1401571509852957  0.0304000000000002   F   F   F
  0.3201884224263836  0.6401571509852957  0.0304000000000002   F   F   F
  0.8201884224263841  0.6401571509852957  0.0304000000000002   F   F   F
  0.4868484409210510  0.4734971645243462  0.1520000000000010   F   F   F
  0.4868484409210505  0.9734971645243462  0.1520000000000010   F   F   F
  0.9868484409210510  0.9734971645243462  0.1520000000000010   F   F   F
  0.9868484409210524  0.4734971645243462  0.1520000000000010   F   F   F
  0.1533504807100307  0.8074907604933392  0.2728065491981483   T   T   T
  0.6547865598948166  0.8070166216889060  0.2733209516836478   T   T   T
  0.1535203061560664  0.3057276114634215  0.2732851553482967   T   T   T
  0.6551929831740320  0.3061392543031286  0.2717069653390405   T   T   T
  0.3199436555189413  0.6415006907071192  0.3936923924484332   T   T   T
  0.8158218366109840  0.6298186140098215  0.3921786149938885   T   T   T
  0.3328720617412959  0.1467410541950345  0.3919364771841250   T   T   T
  0.8181613184197173  0.1439514273468812  0.3944745032664613   T   T   T
 -0.0004674031222466 -0.0284247598793464  0.4764447741730952   T   T   T
  0.1535084178026977  0.3068371476005467  0.0000000000000000   F   F   F
  0.6535084178026977  0.8068371476005467  0.0000000000000000   F   F   F
  0.6535084178026977  0.3068371476005467  0.0000000000000000   F   F   F
  0.1535084178026914  0.8068371476005467  0.0000000000000000   F   F   F
  0.9868484270500417  0.4734971543700582  0.0608000000000004   F   F   F
  0.4868484270500503  0.4734971543700582  0.0608000000000004   F   F   F
  0.4868484270500417  0.9734971543700655  0.0608000000000004   F   F   F
  0.9868484270500417  0.9734971543700655  0.0608000000000004   F   F   F
  0.8201884362973999  0.6401571611395767  0.1216000000000008   F   F   F
  0.8201884362973857  0.1401571611395767  0.1216000000000008   F   F   F
  0.3201884362973857  0.1401571611395767  0.1216000000000008   F   F   F
  0.3201884362973928  0.6401571611395767  0.1216000000000008   F   F   F
  0.1535084455447114  0.8068371679091089  0.1824000000000012   F   F   F
  0.6535084455447164  0.8068371679091089  0.1824000000000012   F   F   F
  0.1535084455447163  0.3068371679091086  0.1824000000000012   F   F   F
  0.6535084455447091  0.3068371679091086  0.1824000000000012   F   F   F
  0.4854532419410637  0.4753022460142889  0.2426315461471135   T   T   T
  0.9902941527812443  0.4745069898173594  0.2422809543640655   T   T   T
  0.9876145715263206  0.9735258010224489  0.2429059086676010   T   T   T
  0.4861296285299808  0.9705894076681736  0.2422898429556386   T   T   T
  0.3188606302241747  0.6422109686375718  0.3057749418264140   T   T   T
  0.8195002515878529  0.6359331588841437  0.3022322131278199   T   T   T
  0.3256919646518670  0.1421182916456189  0.3023116826864511   T   T   T
  0.8197842653668117  0.1402878212189304  0.3019742436093268   T   T   T
  0.1435556740016772  0.8183253571222395  0.3621384758117575   T   T   T
  0.6615314990445355  0.8009918289786089  0.3638696073614601   T   T   T
  0.1601352949940172  0.3008888682715993  0.3637011670272251   T   T   T
  0.6525262054990407  0.3109371565445161  0.3622323676790311   T   T   T
  0.9987620056063267  0.4951296315694737  0.4238713886979283   T   T   T
  0.4901846681440111  0.4708052381233561  0.4254269789781794   T   T   T
  0.4680992342122989  0.9636187383384609  0.4234685498905999   T   T   T
  0.9947852295072036  0.9714329465094425  0.4392242489595701   T   T   T
 
  0.00000000E+00  0.00000000E+00  0.00000000E+00
  0.00000000E+00  0.00000000E+00  0.00000000E+00
  0.00000000E+00  0.00000000E+00  0.00000000E+00
  0.00000000E+00  0.00000000E+00  0.00000000E+00
  0.00000000E+00  0.00000000E+00  0.00000000E+00
  0.00000000E+00  0.00000000E+00  0.00000000E+00
  0.00000000E+00  0.00000000E+00  0.00000000E+00
  0.00000000E+00  0.00000000E+00  0.00000000E+00
  0.00000000E+00  0.00000000E+00  0.00000000E+00
  0.00000000E+00  0.00000000E+00  0.00000000E+00
  0.00000000E+00  0.00000000E+00  0.00000000E+00
  0.00000000E+00  0.00000000E+00  0.00000000E+00
  0.00000000E+00  0.00000000E+00  0.00000000E+00
  0.00000000E+00  0.00000000E+00  0.00000000E+00
  0.00000000E+00  0.00000000E+00  0.00000000E+00
  0.00000000E+00  0.00000000E+00  0.00000000E+00
  0.00000000E+00  0.00000000E+00  0.00000000E+00
  0.00000000E+00  0.00000000E+00  0.00000000E+00
  0.00000000E+00  0.00000000E+00  0.00000000E+00
  0.00000000E+00  0.00000000E+00  0.00000000E+00
  0.00000000E+00  0.00000000E+00  0.00000000E+00
  0.00000000E+00  0.00000000E+00  0.00000000E+00
  0.00000000E+00  0.00000000E+00  0.00000000E+00
  0.00000000E+00  0.00000000E+00  0.00000000E+00
  0.00000000E+00  0.00000000E+00  0.00000000E+00
  0.00000000E+00  0.00000000E+00  0.00000000E+00
  0.00000000E+00  0.00000000E+00  0.00000000E+00
  0.00000000E+00  0.00000000E+00  0.00000000E+00
  0.00000000E+00  0.00000000E+00  0.00000000E+00
  0.00000000E+00  0.00000000E+00  0.00000000E+00
  0.00000000E+00  0.00000000E+00  0.00000000E+00
  0.00000000E+00  0.00000000E+00  0.00000000E+00
  0.00000000E+00  0.00000000E+00  0.00000000E+00
  0.00000000E+00  0.00000000E+00  0.00000000E+00
  0.00000000E+00  0.00000000E+00  0.00000000E+00
  0.00000000E+00  0.00000000E+00  0.00000000E+00
  0.00000000E+00  0.00000000E+00  0.00000000E+00
  0.00000000E+00  0.00000000E+00  0.00000000E+00
  0.00000000E+00  0.00000000E+00  0.00000000E+00
  0.00000000E+00  0.00000000E+00  0.00000000E+00
  0.00000000E+00  0.00000000E+00  0.00000000E+00
  0.00000000E+00  0.00000000E+00  0.00000000E+00
  0.00000000E+00  0.00000000E+00  0.00000000E+00
  0.00000000E+00  0.00000000E+00  0.00000000E+00
  0.00000000E+00  0.00000000E+00  0.00000000E+00
  0.00000000E+00  0.00000000E+00  0.00000000E+00
  0.00000000E+00  0.00000000E+00  0.00000000E+00
  0.00000000E+00  0.00000000E+00  0.00000000E+00
  0.00000000E+00  0.00000000E+00  0.00000000E+00
