comment                                 
   1.00000000000000     
    13.4721510000000002    0.0000000000000000    0.0000000000000000
     6.7360755000000001   11.6672250000000002    0.0000000000000000
     0.0000002500000000    0.0000002500000000   26.1140000000000008
   Ce   H    O 
    48     1    96
Selective dynamics
Direct
  0.4867086115581795  0.6667398570937788  0.0304000000000008   F   F   F
  0.6533752782248545  0.8334065237604488  0.0304000000000008   F   F   F
  0.6533752782248575  0.3334065237604389  0.0304000000000008   F   F   F
  0.9867086115582014  0.1667398570937664  0.0304000000000008   F   F   F
  0.1533752782248409  0.8334065237604488  0.0304000000000008   F   F   F
  0.3200419448915213  0.0000731904271021  0.0304000000000008   F   F   F
  0.9867086115581861  0.6667398570937788  0.0304000000000008   F   F   F
  0.4867086115581855  0.1667398570937664  0.0304000000000008   F   F   F
  0.1533752782248459  0.3334065237604389  0.0304000000000008   F   F   F
  0.8200419448915328  0.0000731904271021  0.0304000000000008   F   F   F
  0.3200419448915212  0.5000731904271022  0.0304000000000008   F   F   F
  0.8200419448915213  0.5000731904271022  0.0304000000000008   F   F   F
  0.1533819477526634  0.6667331982438611  0.1520000000000041   F   F   F
  0.9867152810859916  0.5000665315771968  0.1520000000000041   F   F   F
  0.1533819477526635  0.1667331982438642  0.1520000000000041   F   F   F
  0.8200486144193273  0.8333998649105254  0.1520000000000041   F   F   F
  0.3200486144193186  0.3333998649105255  0.1520000000000041   F   F   F
  0.4867152810859920  0.5000665315771968  0.1520000000000041   F   F   F
  0.8200486144193163  0.3333998649105255  0.1520000000000041   F   F   F
  0.6533819477526635  0.6667331982438611  0.1520000000000041   F   F   F
  0.3200486144193275  0.8333998649105328  0.1520000000000041   F   F   F
  0.4867152810859826  0.0000665315771968  0.1520000000000041   F   F   F
  0.9867152810859920  0.0000665315771968  0.1520000000000041   F   F   F
  0.6533819477526607  0.1667331982438642  0.1520000000000041   F   F   F
  0.3223673833910109  0.6651259327717877  0.2730373698938298   T   T   T
  0.1541887041019409  0.5003526079338717  0.2728087154651704   T   T   T
  0.4870414985494526  0.3320407083211953  0.2727573724150815   T   T   T
  0.6519354556376264 -0.0005984899703353  0.2723039150203023   T   T   T
  0.3194334496577995  0.1663920826174343  0.2727374260660460   T   T   T
  0.9869836348888305  0.8336051214789013  0.2732304375627829   T   T   T
  0.4864535820643245  0.8318577548988264  0.2737196062902666   T   T   T
  0.1527382707614123  0.0003546894309582  0.2731324055596854   T   T   T
  0.8197555811790848  0.6674604667613973  0.2729007305657689   T   T   T
  0.9859604569623591  0.3353468501658312  0.2722731300853624   T   T   T
  0.6532607943207387  0.5005481526747774  0.2737916832560087   T   T   T
  0.8197326330510524  0.1669316368027940  0.2732470209700776   T   T   T
  0.1608138212355290  0.8262341364858214  0.3920611906816009   T   T   T
  0.3182320219913240  0.0005699616270281  0.3933956859198511   T   T   T
  0.9878755813959337  0.6671948166923674  0.3933133451424862   T   T   T
  0.4841557681413436  0.1653978188186712  0.3929388949794324   T   T   T
  0.1536194221310174  0.3353277871085533  0.3927491640713278   T   T   T
  0.3230109869184756  0.4958627734300290  0.3930557912080106   T   T   T
  0.8206700913779224  0.5028517142836741  0.3933064701112814   T   T   T
  0.4889143519723149  0.6644115074533153  0.3966297690681393   T   T   T
  0.6525700957917281  0.8324571463249687  0.3932908311600052   T   T   T
  0.8117058779719561  0.9999244846245824  0.3921411982749513   T   T   T
  0.6533197390275127  0.3318243144485682  0.3935298590924613   T   T   T
  0.9857593135781285  0.1757955036533124  0.3919719554571713   T   T   T
  0.9913392982222290  1.0001313946876369  0.4746121541525488   T   T   T
  0.3200552775095756  0.6667265218062379  0.0000000000000000   F   F   F
  0.1533886108429172  0.0000598551395612  0.0000000000000000   F   F   F
  0.8200552775095753  0.6667265218062379  0.0000000000000000   F   F   F
  0.1533886108429172  0.5000598551395613  0.0000000000000000   F   F   F
  0.3200552775095784  0.1667265218062286  0.0000000000000000   F   F   F
  0.9867219441762307  0.8333931884729034  0.0000000000000000   F   F   F
  0.4867219441762427  0.3333931884728960  0.0000000000000000   F   F   F
  0.4867219441762389  0.8333931884729034  0.0000000000000000   F   F   F
  0.8200552775095774  0.1667265218062286  0.0000000000000000   F   F   F
  0.6533886108429172  0.0000598551395612  0.0000000000000000   F   F   F
  0.6533886108429170  0.5000598551395613  0.0000000000000000   F   F   F
  0.9867219441762403  0.3333931884728960  0.0000000000000000   F   F   F
  0.9867152789401351  0.5000665257146312  0.0608000000000015   F   F   F
  0.1533819456068105  0.6667331923812911  0.0608000000000015   F   F   F
  0.1533819456068006  0.1667331923812898  0.0608000000000015   F   F   F
  0.8200486122734677  0.8333998590479740  0.0608000000000015   F   F   F
  0.3200486122734746  0.3333998590479510  0.0608000000000015   F   F   F
  0.3200486122734745  0.8333998590479510  0.0608000000000015   F   F   F
  0.4867152789401379  0.5000665257146312  0.0608000000000015   F   F   F
  0.8200486122734745  0.3333998590479510  0.0608000000000015   F   F   F
  0.6533819456067983  0.6667331923813057  0.0608000000000015   F   F   F
  0.6533819456068033  0.1667331923812898  0.0608000000000015   F   F   F
  0.4867152789401459  0.0000665257146153  0.0608000000000015   F   F   F
  0.9867152789401459  0.0000665257146153  0.0608000000000015   F   F   F
  0.4867086137040211  0.1667398629563524  0.1216000000000031   F   F   F
  0.4867086137040389  0.6667398629563408  0.1216000000000031   F   F   F
  0.3200419470373603  0.5000731962896836  0.1216000000000031   F   F   F
  0.1533752803706929  0.3334065296230255  0.1216000000000031   F   F   F
  0.8200419470373674  0.5000731962896765  0.1216000000000031   F   F   F
  0.9867086137040367  0.1667398629563455  0.1216000000000031   F   F   F
  0.6533752803707035  0.3334065296230184  0.1216000000000031   F   F   F
  0.8200419470373745  0.0000731962896694  0.1216000000000031   F   F   F
  0.6533752803706963  0.8334065296230286  0.1216000000000031   F   F   F
  0.1533752803706878  0.8334065296230286  0.1216000000000031   F   F   F
  0.9867086137040388  0.6667398629563479  0.1216000000000031   F   F   F
  0.3200419470373674  0.0000731962896836  0.1216000000000031   F   F   F
  0.3200552818012819  0.6667265335313939  0.1824000000000047   F   F   F
  0.3200552818012810  0.1667265335313815  0.1824000000000047   F   F   F
  0.9867219484679414  0.8333932001980594  0.1824000000000047   F   F   F
  0.1533886151346096  0.5000598668647243  0.1824000000000047   F   F   F
  0.4867219484679482  0.3333932001980520  0.1824000000000047   F   F   F
  0.6533886151346165  0.5000598668647107  0.1824000000000047   F   F   F
  0.4867219484679454  0.8333932001980594  0.1824000000000047   F   F   F
  0.1533886151346167  0.0000598668647172  0.1824000000000047   F   F   F
  0.8200552818012817  0.6667265335313939  0.1824000000000047   F   F   F
  0.9867219484679491  0.3333932001980520  0.1824000000000047   F   F   F
  0.8200552818012808  0.1667265335313957  0.1824000000000047   F   F   F
  0.6533886151346168  0.0000598668647100  0.1824000000000047   F   F   F
  0.9867760071579530  0.5013980590877711  0.2427960030313739   T   T   T
  0.1536614832986409  0.6663621334606115  0.2426005551238677   T   T   T
  0.6539577993522699  0.6666658871387572  0.2426764239146350   T   T   T
  0.1532719396397259  0.1668300326495544  0.2425817800148469   T   T   T
  0.8202928113599149  0.8330840444680585  0.2426322094881395   T   T   T
  0.3199924943778322  0.3330497487328398  0.2425848127474685   T   T   T
  0.8190838558226075  0.3343962782364102  0.2426553883336511   T   T   T
  0.4881003970020849  0.4981452427759555  0.2428770001392290   T   T   T
  0.6532955833512187  0.1665475690006948  0.2425222328198395   T   T   T
  0.9863521586337434  1.0003032941220251  0.2436645993479157   T   T   T
  0.4857471915301851 -0.0007950127423599  0.2427394474215614   T   T   T
  0.3197395408230358  0.8338290820586273  0.2427320362706020   T   T   T
  0.1561117091186893  0.8307493512872294  0.3033357360831273   T   T   T
  0.9885190308875965  0.6694731970513058  0.3045049851518974   T   T   T
  0.3213407079127279  0.4982737308142918  0.3034049287755156   T   T   T
  0.4861118729075176  0.1647106420663879  0.3030538414735138   T   T   T
  0.1534387220434482  0.3338127707095997  0.3033718565375582   T   T   T
  0.6534510569396798  0.8322219419751260  0.3036745542326992   T   T   T
  0.8196248610608361  0.5018599943933379  0.3037101617902622   T   T   T
  0.4878174454750934  0.6659197461211419  0.3026509997689541   T   T   T
  0.3168126303329070  1.0002469676236920  0.3045037877828536   T   T   T
  0.9846092546791962  0.1715831888417771  0.3030414069350116   T   T   T
  0.8167216343312800  0.0000984090238358  0.3034645398586386   T   T   T
  0.6555337504933504  0.3299188857916838  0.3046943386509815   T   T   T
  0.3195966187998497  0.6632498204315487  0.3630816335027127   T   T   T
  0.9866700256379869  0.3371036257585335  0.3622442681031472   T   T   T
  0.1540625041669216  0.4998535195749105  0.3623672053921733   T   T   T
  0.3187374782724343  0.1670414297615631  0.3623551110484304   T   T   T
  0.9859752072848120  0.8422044342510832  0.3639727850039585   T   T   T
  0.6507202654289383  0.9991677211650967  0.3623948791120229   T   T   T
  0.4871532753492016  0.3288054137682181  0.3616027318117362   T   T   T
  0.1426987596726953  0.0031287509628316  0.3626912379970192   T   T   T
  0.8236945546598181  0.6674835542843053  0.3618172607228419   T   T   T
  0.4856427419319740  0.8379220912069156  0.3635450981088696   T   T   T
  0.8276667146171500  0.1582857424905431  0.3640916485563638   T   T   T
  0.6585053993012622  0.4941783115363509  0.3635499292407848   T   T   T
  0.9884559164674138  0.5021789053576049  0.4235023397946961   T   T   T
  0.1524679152933417  0.6669876687816240  0.4230669651897878   T   T   T
  0.1510011253320853  0.1694436033078180  0.4226050402333332   T   T   T
  0.8192702706348862  0.8355428212088742  0.4230029310212227   T   T   T
  0.4835265195533620  0.0032862251760987  0.4242655341090375   T   T   T
  0.3193082760111799  0.3324230840636053  0.4231568707028627   T   T   T
  0.3072800853054795  0.8442098856211252  0.4241906302746175   T   T   T
  0.4892739543100568  0.4839281184469822  0.4250016657448663   T   T   T
  0.8249908607535851  0.3303262724638114  0.4236958690431657   T   T   T
  0.6540571832783154  0.1630455944816409  0.4227653526567205   T   T   T
  0.9873897097564632  1.0006326184292169  0.4373884446601332   T   T   T
  0.6657825967529361  0.6665832882687939  0.4242232036161990   T   T   T
 
  0.00000000E+00  0.00000000E+00  0.00000000E+00
  0.00000000E+00  0.00000000E+00  0.00000000E+00
  0.00000000E+00  0.00000000E+00  0.00000000E+00
  0.00000000E+00  0.00000000E+00  0.00000000E+00
  0.00000000E+00  0.00000000E+00  0.00000000E+00
  0.00000000E+00  0.00000000E+00  0.00000000E+00
  0.00000000E+00  0.00000000E+00  0.00000000E+00
  0.00000000E+00  0.00000000E+00  0.00000000E+00
  0.00000000E+00  0.00000000E+00  0.00000000E+00
  0.00000000E+00  0.00000000E+00  0.00000000E+00
  0.00000000E+00  0.00000000E+00  0.00000000E+00
  0.00000000E+00  0.00000000E+00  0.00000000E+00
  0.00000000E+00  0.00000000E+00  0.00000000E+00
  0.00000000E+00  0.00000000E+00  0.00000000E+00
  0.00000000E+00  0.00000000E+00  0.00000000E+00
  0.00000000E+00  0.00000000E+00  0.00000000E+00
  0.00000000E+00  0.00000000E+00  0.00000000E+00
  0.00000000E+00  0.00000000E+00  0.00000000E+00
  0.00000000E+00  0.00000000E+00  0.00000000E+00
  0.00000000E+00  0.00000000E+00  0.00000000E+00
  0.00000000E+00  0.00000000E+00  0.00000000E+00
  0.00000000E+00  0.00000000E+00  0.00000000E+00
  0.00000000E+00  0.00000000E+00  0.00000000E+00
  0.00000000E+00  0.00000000E+00  0.00000000E+00
  0.00000000E+00  0.00000000E+00  0.00000000E+00
  0.00000000E+00  0.00000000E+00  0.00000000E+00
  0.00000000E+00  0.00000000E+00  0.00000000E+00
  0.00000000E+00  0.00000000E+00  0.00000000E+00
  0.00000000E+00  0.00000000E+00  0.00000000E+00
  0.00000000E+00  0.00000000E+00  0.00000000E+00
  0.00000000E+00  0.00000000E+00  0.00000000E+00
  0.00000000E+00  0.00000000E+00  0.00000000E+00
  0.00000000E+00  0.00000000E+00  0.00000000E+00
  0.00000000E+00  0.00000000E+00  0.00000000E+00
  0.00000000E+00  0.00000000E+00  0.00000000E+00
  0.00000000E+00  0.00000000E+00  0.00000000E+00
  0.00000000E+00  0.00000000E+00  0.00000000E+00
  0.00000000E+00  0.00000000E+00  0.00000000E+00
  0.00000000E+00  0.00000000E+00  0.00000000E+00
  0.00000000E+00  0.00000000E+00  0.00000000E+00
  0.00000000E+00  0.00000000E+00  0.00000000E+00
  0.00000000E+00  0.00000000E+00  0.00000000E+00
  0.00000000E+00  0.00000000E+00  0.00000000E+00
  0.00000000E+00  0.00000000E+00  0.00000000E+00
  0.00000000E+00  0.00000000E+00  0.00000000E+00
  0.00000000E+00  0.00000000E+00  0.00000000E+00
  0.00000000E+00  0.00000000E+00  0.00000000E+00
  0.00000000E+00  0.00000000E+00  0.00000000E+00
  0.00000000E+00  0.00000000E+00  0.00000000E+00
  0.00000000E+00  0.00000000E+00  0.00000000E+00
  0.00000000E+00  0.00000000E+00  0.00000000E+00
  0.00000000E+00  0.00000000E+00  0.00000000E+00
  0.00000000E+00  0.00000000E+00  0.00000000E+00
  0.00000000E+00  0.00000000E+00  0.00000000E+00
  0.00000000E+00  0.00000000E+00  0.00000000E+00
  0.00000000E+00  0.00000000E+00  0.00000000E+00
  0.00000000E+00  0.00000000E+00  0.00000000E+00
  0.00000000E+00  0.00000000E+00  0.00000000E+00
  0.00000000E+00  0.00000000E+00  0.00000000E+00
  0.00000000E+00  0.00000000E+00  0.00000000E+00
  0.00000000E+00  0.00000000E+00  0.00000000E+00
  0.00000000E+00  0.00000000E+00  0.00000000E+00
  0.00000000E+00  0.00000000E+00  0.00000000E+00
  0.00000000E+00  0.00000000E+00  0.00000000E+00
  0.00000000E+00  0.00000000E+00  0.00000000E+00
  0.00000000E+00  0.00000000E+00  0.00000000E+00
  0.00000000E+00  0.00000000E+00  0.00000000E+00
  0.00000000E+00  0.00000000E+00  0.00000000E+00
  0.00000000E+00  0.00000000E+00  0.00000000E+00
  0.00000000E+00  0.00000000E+00  0.00000000E+00
  0.00000000E+00  0.00000000E+00  0.00000000E+00
  0.00000000E+00  0.00000000E+00  0.00000000E+00
  0.00000000E+00  0.00000000E+00  0.00000000E+00
  0.00000000E+00  0.00000000E+00  0.00000000E+00
  0.00000000E+00  0.00000000E+00  0.00000000E+00
  0.00000000E+00  0.00000000E+00  0.00000000E+00
  0.00000000E+00  0.00000000E+00  0.00000000E+00
  0.00000000E+00  0.00000000E+00  0.00000000E+00
  0.00000000E+00  0.00000000E+00  0.00000000E+00
  0.00000000E+00  0.00000000E+00  0.00000000E+00
  0.00000000E+00  0.00000000E+00  0.00000000E+00
  0.00000000E+00  0.00000000E+00  0.00000000E+00
  0.00000000E+00  0.00000000E+00  0.00000000E+00
  0.00000000E+00  0.00000000E+00  0.00000000E+00
  0.00000000E+00  0.00000000E+00  0.00000000E+00
  0.00000000E+00  0.00000000E+00  0.00000000E+00
  0.00000000E+00  0.00000000E+00  0.00000000E+00
  0.00000000E+00  0.00000000E+00  0.00000000E+00
  0.00000000E+00  0.00000000E+00  0.00000000E+00
  0.00000000E+00  0.00000000E+00  0.00000000E+00
  0.00000000E+00  0.00000000E+00  0.00000000E+00
  0.00000000E+00  0.00000000E+00  0.00000000E+00
  0.00000000E+00  0.00000000E+00  0.00000000E+00
  0.00000000E+00  0.00000000E+00  0.00000000E+00
  0.00000000E+00  0.00000000E+00  0.00000000E+00
  0.00000000E+00  0.00000000E+00  0.00000000E+00
  0.00000000E+00  0.00000000E+00  0.00000000E+00
  0.00000000E+00  0.00000000E+00  0.00000000E+00
  0.00000000E+00  0.00000000E+00  0.00000000E+00
  0.00000000E+00  0.00000000E+00  0.00000000E+00
  0.00000000E+00  0.00000000E+00  0.00000000E+00
  0.00000000E+00  0.00000000E+00  0.00000000E+00
  0.00000000E+00  0.00000000E+00  0.00000000E+00
  0.00000000E+00  0.00000000E+00  0.00000000E+00
  0.00000000E+00  0.00000000E+00  0.00000000E+00
  0.00000000E+00  0.00000000E+00  0.00000000E+00
  0.00000000E+00  0.00000000E+00  0.00000000E+00
  0.00000000E+00  0.00000000E+00  0.00000000E+00
  0.00000000E+00  0.00000000E+00  0.00000000E+00
  0.00000000E+00  0.00000000E+00  0.00000000E+00
  0.00000000E+00  0.00000000E+00  0.00000000E+00
  0.00000000E+00  0.00000000E+00  0.00000000E+00
  0.00000000E+00  0.00000000E+00  0.00000000E+00
  0.00000000E+00  0.00000000E+00  0.00000000E+00
  0.00000000E+00  0.00000000E+00  0.00000000E+00
  0.00000000E+00  0.00000000E+00  0.00000000E+00
  0.00000000E+00  0.00000000E+00  0.00000000E+00
  0.00000000E+00  0.00000000E+00  0.00000000E+00
  0.00000000E+00  0.00000000E+00  0.00000000E+00
  0.00000000E+00  0.00000000E+00  0.00000000E+00
  0.00000000E+00  0.00000000E+00  0.00000000E+00
  0.00000000E+00  0.00000000E+00  0.00000000E+00
  0.00000000E+00  0.00000000E+00  0.00000000E+00
  0.00000000E+00  0.00000000E+00  0.00000000E+00
  0.00000000E+00  0.00000000E+00  0.00000000E+00
  0.00000000E+00  0.00000000E+00  0.00000000E+00
  0.00000000E+00  0.00000000E+00  0.00000000E+00
  0.00000000E+00  0.00000000E+00  0.00000000E+00
  0.00000000E+00  0.00000000E+00  0.00000000E+00
  0.00000000E+00  0.00000000E+00  0.00000000E+00
  0.00000000E+00  0.00000000E+00  0.00000000E+00
  0.00000000E+00  0.00000000E+00  0.00000000E+00
  0.00000000E+00  0.00000000E+00  0.00000000E+00
  0.00000000E+00  0.00000000E+00  0.00000000E+00
  0.00000000E+00  0.00000000E+00  0.00000000E+00
  0.00000000E+00  0.00000000E+00  0.00000000E+00
  0.00000000E+00  0.00000000E+00  0.00000000E+00
  0.00000000E+00  0.00000000E+00  0.00000000E+00
  0.00000000E+00  0.00000000E+00  0.00000000E+00
  0.00000000E+00  0.00000000E+00  0.00000000E+00
  0.00000000E+00  0.00000000E+00  0.00000000E+00
  0.00000000E+00  0.00000000E+00  0.00000000E+00
  0.00000000E+00  0.00000000E+00  0.00000000E+00
  0.00000000E+00  0.00000000E+00  0.00000000E+00
  0.00000000E+00  0.00000000E+00  0.00000000E+00
