12n                                     
   1.00000000000000     
    13.4721510000000002    0.0000000000000000    0.0000000000000000
     6.7360755000000001   11.6672250000000002    0.0000000000000000
     0.0000002500000000    0.0000002500000000   26.1140000000000008
   C    Ce   H    O 
     1    48     1    97
Selective dynamics
Direct
  0.3021222118267080  0.0351516152756440  0.5026605546898097   T   T   T
  0.3210059242295529  0.0004734785601173  0.0304000000000003   F   F   F
  0.9876725908962170  0.6671401452267840  0.0304000000000003   F   F   F
  0.4876725908962171  0.1671401452267816  0.0304000000000003   F   F   F
  0.1543392575628803  0.3338068118934554  0.0304000000000003   F   F   F
  0.3210059242295526  0.5004734785601177  0.0304000000000003   F   F   F
  0.8210059242295528  0.5004734785601177  0.0304000000000003   F   F   F
  0.4876725908962160  0.6671401452267840  0.0304000000000003   F   F   F
  0.6543392575628814  0.8338068118934574  0.0304000000000003   F   F   F
  0.8210059242295529  0.0004734785601173  0.0304000000000003   F   F   F
  0.6543392575628822  0.3338068118934623  0.0304000000000003   F   F   F
  0.9876725908962173  0.1671401452267816  0.0304000000000003   F   F   F
  0.1543392575628862  0.8338068118934433  0.0304000000000003   F   F   F
  0.1543459270906951  0.6671334863768763  0.1520000000000016   F   F   F
  0.9876792604240237  0.5004668197102191  0.1520000000000016   F   F   F
  0.1543459270906949  0.1671334863768769  0.1520000000000016   F   F   F
  0.8210125937573594  0.8338001530435477  0.1520000000000016   F   F   F
  0.4876792604240221  0.0004668197102120  0.1520000000000016   F   F   F
  0.3210125937573578  0.3338001530435477  0.1520000000000016   F   F   F
  0.4876792604240235  0.5004668197102120  0.1520000000000016   F   F   F
  0.8210125937573665  0.3338001530435336  0.1520000000000016   F   F   F
  0.6543459270906951  0.6671334863768763  0.1520000000000016   F   F   F
  0.3210125937573517  0.8338001530435620  0.1520000000000016   F   F   F
  0.9876792604240237  0.0004668197102120  0.1520000000000016   F   F   F
  0.6543459270906947  0.1671334863768769  0.1520000000000016   F   F   F
  0.9869534444894456  0.3355268681722540  0.2722862674765552   T   T   T
  0.3202774038945596  0.1665275670314211  0.2729140338361846   T   T   T
  0.9878814670383228  0.8342443968105389  0.2731761674305210   T   T   T
  0.1551781767128309  0.5007024246598732  0.2727372494945493   T   T   T
  0.4878070868329026  0.3325679315554153  0.2727105233085678   T   T   T
  0.6530363245304542 -0.0001391194334028  0.2723192546532700   T   T   T
  0.8208640152032831  0.1671068470333965  0.2732007642033963   T   T   T
  0.1537411053143914  0.0007601794382847  0.2733258635229025   T   T   T
  0.8206552842436639  0.6678870507360132  0.2728901929989598   T   T   T
  0.3230288786092056  0.6658198647246526  0.2730522675756365   T   T   T
  0.4871203190886206  0.8326419253925312  0.2738031394879807   T   T   T
  0.6541524979864538  0.5010511807609987  0.2737408653007283   T   T   T
  0.8211249289832255  0.5034887389214093  0.3933957508809670   T   T   T
  0.6538690022405553  0.8326592225829123  0.3934441982989367   T   T   T
  0.4853182169112378  0.1660589883568500  0.3928191584811010   T   T   T
  0.3193026386491512  1.0003446957759121  0.3943203041174562   T   T   T
  0.9887481087736913  0.6677738253727115  0.3932385464179534   T   T   T
  0.1542330949177259  0.3360296626002390  0.3926832064226521   T   T   T
  0.8125547682573198  0.0005627096061576  0.3920617940738663   T   T   T
  0.3236059767208743  0.4965604595835974  0.3930446205485354   T   T   T
  0.1613446435036712  0.8265857974107175  0.3921431481836311   T   T   T
  0.9861960243830171  0.1764080122411549  0.3919940816990219   T   T   T
  0.6540940715197378  0.3323467696770746  0.3934042789843075   T   T   T
  0.4898828851748557  0.6648618693735939  0.3966177657543329   T   T   T
  0.9910456327044419  1.0006023027608155  0.4744193392732383   T   T   T
  0.3210192568476119  0.6671268099392431  0.0000000000000000   F   F   F
  0.1543525901809488  0.0004601432725764  0.0000000000000000   F   F   F
  0.8210192568476121  0.6671268099392431  0.0000000000000000   F   F   F
  0.1543525901809488  0.5004601432725765  0.0000000000000000   F   F   F
  0.3210192568476130  0.1671268099392413  0.0000000000000000   F   F   F
  0.9876859235142756  0.8337934766059147  0.0000000000000000   F   F   F
  0.6543525901809486  0.0004601432725764  0.0000000000000000   F   F   F
  0.4876859235142766  0.3337934766059133  0.0000000000000000   F   F   F
  0.4876859235142761  0.8337934766059147  0.0000000000000000   F   F   F
  0.8210192568476059  0.1671268099392555  0.0000000000000000   F   F   F
  0.6543525901809488  0.5004601432725765  0.0000000000000000   F   F   F
  0.9876859235142768  0.3337934766059133  0.0000000000000000   F   F   F
  0.9876792582781767  0.5004668138476406  0.0608000000000007   F   F   F
  0.1543459249448467  0.6671334805142994  0.0608000000000007   F   F   F
  0.1543459249448341  0.1671334805143167  0.0608000000000007   F   F   F
  0.8210125916115062  0.8338001471809807  0.0608000000000007   F   F   F
  0.4876792582781776  0.0004668138476376  0.0608000000000007   F   F   F
  0.3210125916115061  0.3338001471809662  0.0608000000000007   F   F   F
  0.3210125916115056  0.8338001471809672  0.0608000000000007   F   F   F
  0.4876792582781758  0.5004668138476406  0.0608000000000007   F   F   F
  0.8210125916115055  0.3338001471809662  0.0608000000000007   F   F   F
  0.6543459249448386  0.6671334805143069  0.0608000000000007   F   F   F
  0.6543459249448411  0.1671334805143025  0.0608000000000007   F   F   F
  0.9876792582781775  0.0004668138476376  0.0608000000000007   F   F   F
  0.4876725930420703  0.6671401510893631  0.1216000000000013   F   F   F
  0.3210059263753706  0.5004734844227059  0.1216000000000013   F   F   F
  0.1543392597087128  0.3338068177560641  0.1216000000000013   F   F   F
  0.8210059263754061  0.5004734844226917  0.1216000000000013   F   F   F
  0.9876725930420698  0.1671401510893572  0.1216000000000013   F   F   F
  0.6543392597087347  0.3338068177560286  0.1216000000000013   F   F   F
  0.8210059263753992  0.0004734844226917  0.1216000000000013   F   F   F
  0.6543392597087334  0.8338068177560308  0.1216000000000013   F   F   F
  0.1543392597087043  0.8338068177560456  0.1216000000000013   F   F   F
  0.3210059263753975  0.0004734844227059  0.1216000000000013   F   F   F
  0.9876725930420630  0.6671401510893703  0.1216000000000013   F   F   F
  0.4876725930420406  0.1671401510893714  0.1216000000000013   F   F   F
  0.3210192611393182  0.6671268216643991  0.1824000000000020   F   F   F
  0.3210192611393196  0.1671268216643966  0.1824000000000020   F   F   F
  0.9876859278059823  0.8337934883310715  0.1824000000000020   F   F   F
  0.1543525944726478  0.5004601549977402  0.1824000000000020   F   F   F
  0.4876859278059830  0.3337934883310621  0.1824000000000020   F   F   F
  0.6543525944726483  0.0004601549977323  0.1824000000000020   F   F   F
  0.6543525944726477  0.5004601549977334  0.1824000000000020   F   F   F
  0.4876859278059821  0.8337934883310648  0.1824000000000020   F   F   F
  0.1543525944726484  0.0004601549977323  0.1824000000000020   F   F   F
  0.8210192611393180  0.6671268216643991  0.1824000000000020   F   F   F
  0.9876859278059834  0.3337934883310621  0.1824000000000020   F   F   F
  0.8210192611393056  0.1671268216644179  0.1824000000000020   F   F   F
  0.9879199477821132  0.5015325736226431  0.2426923697467902   T   T   T
  0.1540519562805521  0.1672996760529781  0.2426775923228399   T   T   T
  0.8212818483237497  0.8336475028396386  0.2426497894465858   T   T   T
  0.3208844042858903  0.3333287730781458  0.2425249413741094   T   T   T
  0.4866439062244160 -0.0002199233349902  0.2427548651486846   T   T   T
  0.1544521653575135  0.6670714510386828  0.2427062083033833   T   T   T
  0.9872353406584743  0.0006079592004133  0.2433805949385158   T   T   T
  0.4887779294062997  0.4987738048853319  0.2428300288912349   T   T   T
  0.3204875624158778  0.8341743889215386  0.2427715481630562   T   T   T
  0.8202743130963674  0.3343781717467220  0.2427353912200465   T   T   T
  0.6542520295905417  0.1668032576318524  0.2426142611665286   T   T   T
  0.6547292978194021  0.6671653931777775  0.2427673462347946   T   T   T
  0.4882897701175037  0.6665247697520007  0.3027572434876440   T   T   T
  0.4866252537262481  0.1654636922207942  0.3031908427596967   T   T   T
  0.6543651209705494  0.8330597242971453  0.3036727709726070   T   T   T
  0.8208909173831739  0.5021051775774178  0.3035856077625931   T   T   T
  0.1546146803346058  0.3342385999820348  0.3034578304774306   T   T   T
  0.3220995215259026  0.4986510240931367  0.3033676907314978   T   T   T
  0.1563008014902527  0.8321123875396571  0.3034584802287058   T   T   T
  0.9858071795241129  0.1711330088250262  0.3031401431795993   T   T   T
  0.8183199816901218  0.0004948445823656  0.3034426256644182   T   T   T
  0.6561520933017394  0.3308474406939893  0.3046179856719285   T   T   T
  0.3179646389721789  0.0003055961755657  0.3044454859907723   T   T   T
  0.9888639466968197  0.6696022009585449  0.3044545986098091   T   T   T
  0.4879267184500827  0.3296311424120288  0.3615811353556944   T   T   T
  0.9873757312672996  0.3371777222414075  0.3620617508643177   T   T   T
  0.1549810296002414  0.5006121801776945  0.3623620016552924   T   T   T
  0.3193423129513056  0.1667556905859295  0.3627989969545105   T   T   T
  0.9869453515122188  0.8417374629492659  0.3639873841950201   T   T   T
  0.6523166699660770  0.0000536754557623  0.3621632067142203   T   T   T
  0.8278307452128313  0.1594216255808144  0.3641013804865033   T   T   T
  0.3193994750508566  0.6640615391894861  0.3629849909480564   T   T   T
  0.1442821511023064  0.0036552866736935  0.3632577622969687   T   T   T
  0.8234576135462330  0.6681330151968968  0.3620149682130800   T   T   T
  0.4868725118827662  0.8379533304308642  0.3638458521357369   T   T   T
  0.6596154749262227  0.4952092630044133  0.3633925235552413   T   T   T
  0.9892813878622531  0.5024255974060905  0.4231743001222834   T   T   T
  0.1497404386105369  0.1720245348048701  0.4232219079454187   T   T   T
  0.8200972567527065  0.8362866067760437  0.4230804247824497   T   T   T
  0.4870147773298062  0.0033669286656189  0.4241205991880229   T   T   T
  0.6547876304817152  0.1641718746518565  0.4228874391547491   T   T   T
  0.3201524014134825  0.3328009257490788  0.4231927441668236   T   T   T
  0.9876646064038254  0.0010698014613752  0.4371972330809170   T   T   T
  0.8254704272613986  0.3309097176063148  0.4237621748905603   T   T   T
  0.1527455876879740  0.6673493533751498  0.4234726325936137   T   T   T
  0.3084691476513555  0.8429001148519752  0.4242511884681728   T   T   T
  0.4899278848533551  0.4851266914486222  0.4246492214973705   T   T   T
  0.6666765120092857  0.6668906705943641  0.4251988270873891   T   T   T
  0.2846677068840550  0.0675186026816316  0.5439613520342386   T   T   T
 
  0.00000000E+00  0.00000000E+00  0.00000000E+00
  0.00000000E+00  0.00000000E+00  0.00000000E+00
  0.00000000E+00  0.00000000E+00  0.00000000E+00
  0.00000000E+00  0.00000000E+00  0.00000000E+00
  0.00000000E+00  0.00000000E+00  0.00000000E+00
  0.00000000E+00  0.00000000E+00  0.00000000E+00
  0.00000000E+00  0.00000000E+00  0.00000000E+00
  0.00000000E+00  0.00000000E+00  0.00000000E+00
  0.00000000E+00  0.00000000E+00  0.00000000E+00
  0.00000000E+00  0.00000000E+00  0.00000000E+00
  0.00000000E+00  0.00000000E+00  0.00000000E+00
  0.00000000E+00  0.00000000E+00  0.00000000E+00
  0.00000000E+00  0.00000000E+00  0.00000000E+00
  0.00000000E+00  0.00000000E+00  0.00000000E+00
  0.00000000E+00  0.00000000E+00  0.00000000E+00
  0.00000000E+00  0.00000000E+00  0.00000000E+00
  0.00000000E+00  0.00000000E+00  0.00000000E+00
  0.00000000E+00  0.00000000E+00  0.00000000E+00
  0.00000000E+00  0.00000000E+00  0.00000000E+00
  0.00000000E+00  0.00000000E+00  0.00000000E+00
  0.00000000E+00  0.00000000E+00  0.00000000E+00
  0.00000000E+00  0.00000000E+00  0.00000000E+00
  0.00000000E+00  0.00000000E+00  0.00000000E+00
  0.00000000E+00  0.00000000E+00  0.00000000E+00
  0.00000000E+00  0.00000000E+00  0.00000000E+00
  0.00000000E+00  0.00000000E+00  0.00000000E+00
  0.00000000E+00  0.00000000E+00  0.00000000E+00
  0.00000000E+00  0.00000000E+00  0.00000000E+00
  0.00000000E+00  0.00000000E+00  0.00000000E+00
  0.00000000E+00  0.00000000E+00  0.00000000E+00
  0.00000000E+00  0.00000000E+00  0.00000000E+00
  0.00000000E+00  0.00000000E+00  0.00000000E+00
  0.00000000E+00  0.00000000E+00  0.00000000E+00
  0.00000000E+00  0.00000000E+00  0.00000000E+00
  0.00000000E+00  0.00000000E+00  0.00000000E+00
  0.00000000E+00  0.00000000E+00  0.00000000E+00
  0.00000000E+00  0.00000000E+00  0.00000000E+00
  0.00000000E+00  0.00000000E+00  0.00000000E+00
  0.00000000E+00  0.00000000E+00  0.00000000E+00
  0.00000000E+00  0.00000000E+00  0.00000000E+00
  0.00000000E+00  0.00000000E+00  0.00000000E+00
  0.00000000E+00  0.00000000E+00  0.00000000E+00
  0.00000000E+00  0.00000000E+00  0.00000000E+00
  0.00000000E+00  0.00000000E+00  0.00000000E+00
  0.00000000E+00  0.00000000E+00  0.00000000E+00
  0.00000000E+00  0.00000000E+00  0.00000000E+00
  0.00000000E+00  0.00000000E+00  0.00000000E+00
  0.00000000E+00  0.00000000E+00  0.00000000E+00
  0.00000000E+00  0.00000000E+00  0.00000000E+00
  0.00000000E+00  0.00000000E+00  0.00000000E+00
  0.00000000E+00  0.00000000E+00  0.00000000E+00
  0.00000000E+00  0.00000000E+00  0.00000000E+00
  0.00000000E+00  0.00000000E+00  0.00000000E+00
  0.00000000E+00  0.00000000E+00  0.00000000E+00
  0.00000000E+00  0.00000000E+00  0.00000000E+00
  0.00000000E+00  0.00000000E+00  0.00000000E+00
  0.00000000E+00  0.00000000E+00  0.00000000E+00
  0.00000000E+00  0.00000000E+00  0.00000000E+00
  0.00000000E+00  0.00000000E+00  0.00000000E+00
  0.00000000E+00  0.00000000E+00  0.00000000E+00
  0.00000000E+00  0.00000000E+00  0.00000000E+00
  0.00000000E+00  0.00000000E+00  0.00000000E+00
  0.00000000E+00  0.00000000E+00  0.00000000E+00
  0.00000000E+00  0.00000000E+00  0.00000000E+00
  0.00000000E+00  0.00000000E+00  0.00000000E+00
  0.00000000E+00  0.00000000E+00  0.00000000E+00
  0.00000000E+00  0.00000000E+00  0.00000000E+00
  0.00000000E+00  0.00000000E+00  0.00000000E+00
  0.00000000E+00  0.00000000E+00  0.00000000E+00
  0.00000000E+00  0.00000000E+00  0.00000000E+00
  0.00000000E+00  0.00000000E+00  0.00000000E+00
  0.00000000E+00  0.00000000E+00  0.00000000E+00
  0.00000000E+00  0.00000000E+00  0.00000000E+00
  0.00000000E+00  0.00000000E+00  0.00000000E+00
  0.00000000E+00  0.00000000E+00  0.00000000E+00
  0.00000000E+00  0.00000000E+00  0.00000000E+00
  0.00000000E+00  0.00000000E+00  0.00000000E+00
  0.00000000E+00  0.00000000E+00  0.00000000E+00
  0.00000000E+00  0.00000000E+00  0.00000000E+00
  0.00000000E+00  0.00000000E+00  0.00000000E+00
  0.00000000E+00  0.00000000E+00  0.00000000E+00
  0.00000000E+00  0.00000000E+00  0.00000000E+00
  0.00000000E+00  0.00000000E+00  0.00000000E+00
  0.00000000E+00  0.00000000E+00  0.00000000E+00
  0.00000000E+00  0.00000000E+00  0.00000000E+00
  0.00000000E+00  0.00000000E+00  0.00000000E+00
  0.00000000E+00  0.00000000E+00  0.00000000E+00
  0.00000000E+00  0.00000000E+00  0.00000000E+00
  0.00000000E+00  0.00000000E+00  0.00000000E+00
  0.00000000E+00  0.00000000E+00  0.00000000E+00
  0.00000000E+00  0.00000000E+00  0.00000000E+00
  0.00000000E+00  0.00000000E+00  0.00000000E+00
  0.00000000E+00  0.00000000E+00  0.00000000E+00
  0.00000000E+00  0.00000000E+00  0.00000000E+00
  0.00000000E+00  0.00000000E+00  0.00000000E+00
  0.00000000E+00  0.00000000E+00  0.00000000E+00
  0.00000000E+00  0.00000000E+00  0.00000000E+00
  0.00000000E+00  0.00000000E+00  0.00000000E+00
  0.00000000E+00  0.00000000E+00  0.00000000E+00
  0.00000000E+00  0.00000000E+00  0.00000000E+00
  0.00000000E+00  0.00000000E+00  0.00000000E+00
  0.00000000E+00  0.00000000E+00  0.00000000E+00
  0.00000000E+00  0.00000000E+00  0.00000000E+00
  0.00000000E+00  0.00000000E+00  0.00000000E+00
  0.00000000E+00  0.00000000E+00  0.00000000E+00
  0.00000000E+00  0.00000000E+00  0.00000000E+00
  0.00000000E+00  0.00000000E+00  0.00000000E+00
  0.00000000E+00  0.00000000E+00  0.00000000E+00
  0.00000000E+00  0.00000000E+00  0.00000000E+00
  0.00000000E+00  0.00000000E+00  0.00000000E+00
  0.00000000E+00  0.00000000E+00  0.00000000E+00
  0.00000000E+00  0.00000000E+00  0.00000000E+00
  0.00000000E+00  0.00000000E+00  0.00000000E+00
  0.00000000E+00  0.00000000E+00  0.00000000E+00
  0.00000000E+00  0.00000000E+00  0.00000000E+00
  0.00000000E+00  0.00000000E+00  0.00000000E+00
  0.00000000E+00  0.00000000E+00  0.00000000E+00
  0.00000000E+00  0.00000000E+00  0.00000000E+00
  0.00000000E+00  0.00000000E+00  0.00000000E+00
  0.00000000E+00  0.00000000E+00  0.00000000E+00
  0.00000000E+00  0.00000000E+00  0.00000000E+00
  0.00000000E+00  0.00000000E+00  0.00000000E+00
  0.00000000E+00  0.00000000E+00  0.00000000E+00
  0.00000000E+00  0.00000000E+00  0.00000000E+00
  0.00000000E+00  0.00000000E+00  0.00000000E+00
  0.00000000E+00  0.00000000E+00  0.00000000E+00
  0.00000000E+00  0.00000000E+00  0.00000000E+00
  0.00000000E+00  0.00000000E+00  0.00000000E+00
  0.00000000E+00  0.00000000E+00  0.00000000E+00
  0.00000000E+00  0.00000000E+00  0.00000000E+00
  0.00000000E+00  0.00000000E+00  0.00000000E+00
  0.00000000E+00  0.00000000E+00  0.00000000E+00
  0.00000000E+00  0.00000000E+00  0.00000000E+00
  0.00000000E+00  0.00000000E+00  0.00000000E+00
  0.00000000E+00  0.00000000E+00  0.00000000E+00
  0.00000000E+00  0.00000000E+00  0.00000000E+00
  0.00000000E+00  0.00000000E+00  0.00000000E+00
  0.00000000E+00  0.00000000E+00  0.00000000E+00
  0.00000000E+00  0.00000000E+00  0.00000000E+00
  0.00000000E+00  0.00000000E+00  0.00000000E+00
  0.00000000E+00  0.00000000E+00  0.00000000E+00
  0.00000000E+00  0.00000000E+00  0.00000000E+00
  0.00000000E+00  0.00000000E+00  0.00000000E+00
  0.00000000E+00  0.00000000E+00  0.00000000E+00
  0.00000000E+00  0.00000000E+00  0.00000000E+00
  0.00000000E+00  0.00000000E+00  0.00000000E+00
  0.00000000E+00  0.00000000E+00  0.00000000E+00
