9n                                      
   1.00000000000000     
    11.6672250000000002    0.0000000000000000    0.0000000000000000
    -5.8336125000000001   10.1041132500000010    0.0000000000000000
     0.0000002500000000    0.0000002500000000   26.1140000000000008
   C    Ce   H    O 
     1    36     1    73
Selective dynamics
Direct
  0.2461964431331888  0.4239362664474302  0.5023698037325163   T   T   T
  0.2146352542331871  0.4283235513461463  0.0304000000000002   F   F   F
  0.2146352542331863  0.7616568846794820  0.0304000000000002   F   F   F
  0.5479685875665212  0.7616568846794820  0.0304000000000002   F   F   F
  0.5479685875665226  0.4283235513461463  0.0304000000000002   F   F   F
  0.8813019208998583  0.4283235513461463  0.0304000000000002   F   F   F
  0.8813019208998580  0.7616568846794820  0.0304000000000002   F   F   F
  0.2146352542331869  0.0949902180128106  0.0304000000000002   F   F   F
  0.5479685875665224  0.0949902180128106  0.0304000000000002   F   F   F
  0.8813019208998598  0.0949902180128106  0.0304000000000002   F   F   F
  0.9924085998963007  0.3172168937055133  0.1520000000000010   F   F   F
  0.9924085998963007  0.6505502270388419  0.1520000000000010   F   F   F
  0.3257419332296365  0.3172168937055133  0.1520000000000010   F   F   F
  0.3257419332296365  0.6505502270388419  0.1520000000000010   F   F   F
  0.6590752665629652  0.6505502270388419  0.1520000000000010   F   F   F
  0.6590752665629652  0.3172168937055133  0.1520000000000010   F   F   F
  0.9924085998963007  0.9838835603721776  0.1520000000000010   F   F   F
  0.3257419332296383  0.9838835603721776  0.1520000000000010   F   F   F
  0.6590752665629652  0.9838835603721776  0.1520000000000010   F   F   F
  0.4367504237168839  0.2057883651562931  0.2727008716303996   T   T   T
  0.1036164582915752  0.5389308610813727  0.2729762584931683   T   T   T
  0.4362314954193542  0.5388656738566729  0.2730261932923547   T   T   T
  0.7701663456499743  0.5392611220672335  0.2726821826677233   T   T   T
  0.7702710927087153  0.8725024618290677  0.2729511193905574   T   T   T
  0.1033591929270502  0.8725724751359614  0.2729386859911873   T   T   T
  0.4367736244270836  0.8724867238895776  0.2728290959005229   T   T   T
  0.7701048561322289  0.2057930951104874  0.2727255288082110   T   T   T
  0.1035699938774812  0.2060853109846487  0.2732175467977196   T   T   T
  0.2164461646097492  0.0950329923945660  0.3929742816205212   T   T   T
  0.2145791065238339  0.7615595835477696  0.3927457495786270   T   T   T
  0.5479336727353517  0.7613725234085558  0.3927165265310961   T   T   T
  0.2137812634556281  0.4277223970853484  0.3937670394793881   T   T   T
  0.5482000275075019  0.4277343519738559  0.3927234366431096   T   T   T
  0.8803794571905634  0.7597877872666512  0.3928849685050112   T   T   T
  0.5479462195522562  0.0945927037227609  0.3926320669103925   T   T   T
  0.8800232575245424  0.0951520584898849  0.3929822358811754   T   T   T
  0.8809369865126805  0.4278693826600232  0.3927919109393544   T   T   T
  1.0084907771862459  1.0106780767849142  0.4955449365700618   T   T   T
  0.1035152511507320  0.8727768824229827  0.0000000000000000   F   F   F
  0.1035152511507320  0.2061102157563113  0.0000000000000000   F   F   F
  0.7701819178174034  0.5394435490896470  0.0000000000000000   F   F   F
  0.4368485844840677  0.5394435490896470  0.0000000000000000   F   F   F
  0.4368485844840677  0.8727768824229827  0.0000000000000000   F   F   F
  0.7701819178174034  0.8727768824229827  0.0000000000000000   F   F   F
  0.4368485844840677  0.2061102157563113  0.0000000000000000   F   F   F
  0.7701819178174034  0.2061102157563113  0.0000000000000000   F   F   F
  0.1035152511507320  0.5394435490896470  0.0000000000000000   F   F   F
  0.9924085906489637  0.3172168869359876  0.0608000000000004   F   F   F
  0.9924085906489567  0.6505502202693237  0.0608000000000004   F   F   F
  0.6590752573156420  0.3172168869359876  0.0608000000000004   F   F   F
  0.3257419239823067  0.3172168869359876  0.0608000000000004   F   F   F
  0.3257419239822995  0.6505502202693237  0.0608000000000004   F   F   F
  0.6590752573156280  0.6505502202693237  0.0608000000000004   F   F   F
  0.9924085906489640  0.9838835536026592  0.0608000000000004   F   F   F
  0.6590752573156275  0.9838835536026592  0.0608000000000004   F   F   F
  0.3257419239822993  0.9838835536026592  0.0608000000000004   F   F   F
  0.8813019301471954  0.7616568914489719  0.1216000000000008   F   F   F
  0.8813019301471954  0.4283235581156646  0.1216000000000008   F   F   F
  0.5479685968138952  0.4283235581156646  0.1216000000000008   F   F   F
  0.5479685968138598  0.0949902247823289  0.1216000000000008   F   F   F
  0.8813019301472037  0.0949902247823289  0.1216000000000008   F   F   F
  0.2146352634805240  0.0949902247823289  0.1216000000000008   F   F   F
  0.2146352634805243  0.7616568914489719  0.1216000000000008   F   F   F
  0.2146352634805382  0.4283235581156646  0.1216000000000008   F   F   F
  0.5479685968138598  0.7616568914489719  0.1216000000000008   F   F   F
  0.1035152696454062  0.5394435626286906  0.1824000000000012   F   F   F
  0.1035152696454062  0.8727768959620192  0.1824000000000012   F   F   F
  0.4368486029787420  0.5394435626286906  0.1824000000000012   F   F   F
  0.7701819363120849  0.5394435626286906  0.1824000000000012   F   F   F
  0.7701819363120777  0.8727768959620192  0.1824000000000012   F   F   F
  0.4368486029787420  0.8727768959620192  0.1824000000000012   F   F   F
  0.1035152696454062  0.2061102292953549  0.1824000000000012   F   F   F
  0.7701819363120849  0.2061102292953549  0.1824000000000012   F   F   F
  0.4368486029787420  0.2061102292953549  0.1824000000000012   F   F   F
  0.3255466323728479  0.3168924030620569  0.2427320838088563   T   T   T
  0.6590503072659608  0.3170751862505087  0.2426108720083500   T   T   T
  0.9922287658990969  0.3168100607878650  0.2427143067369833   T   T   T
  0.6590590553398405  0.6504397585459731  0.2427201335638868   T   T   T
  0.3255727935380995  0.6502375542244555  0.2427411224289635   T   T   T
  0.9924092270822200  0.6503559679252391  0.2427019345805616   T   T   T
  0.9922916952632258  0.9836823975931281  0.2428373465725740   T   T   T
  0.3255657888155822  0.9836575797790191  0.2426536671631299   T   T   T
  0.6591348120250025  0.9835093904895010  0.2427221747015233   T   T   T
  0.2144579223314000  0.7611236644686991  0.3036913699702509   T   T   T
  0.5473746194348000  0.7607555510673476  0.3036711441173401   T   T   T
  0.2148527734145856  0.0948817075307447  0.3037384662757999   T   T   T
  0.5477768294722938  0.4281350498795062  0.3035385622359235   T   T   T
  0.8812621084181300  0.7611843809910763  0.3036083746946638   T   T   T
  0.8813023946704018  0.0949281161366162  0.3038524457184679   T   T   T
  0.5479174874330188  0.0945672808276372  0.3033258400122835   T   T   T
  0.8814892187817075  0.4280503870211622  0.3036187228784933   T   T   T
  0.2141024648348556  0.4276309000131333  0.3034851397243630   T   T   T
  0.1036070122718814  0.8725128126984699  0.3624854954965696   T   T   T
  0.7695953209651918  0.8720928246005875  0.3623810830224675   T   T   T
  0.4375036097761326  0.2054743571989281  0.3621301809889951   T   T   T
  0.7699526771245243  0.5387986941761747  0.3622141854556437   T   T   T
  0.1039089367536841  0.5389056301345685  0.3628491597433725   T   T   T
  0.4353599899086854  0.5381144702038182  0.3628904160521531   T   T   T
  0.4369522177850487  0.8729051241142063  0.3622459227325805   T   T   T
  0.7693412536875902  0.2056237720036239  0.3622342378851870   T   T   T
  0.1040187374983532  0.2061112941981512  0.3631137869118249   T   T   T
  0.3278656229277314  0.3145579753570318  0.4228733688677815   T   T   T
  0.3268918099576921  0.6526187085995540  0.4227010182734247   T   T   T
  0.6590531383600484  0.9839587504005424  0.4225141918362243   T   T   T
  0.3261280356263971  0.9840779487368028  0.4225540853839785   T   T   T
  0.6588602189884650  0.6495878184907301  0.4226327928405599   T   T   T
  0.9897632409767505  0.3156209809587678  0.4223876838814916   T   T   T
  0.6590746048571409  0.3170249419844814  0.4226342521749952   T   T   T
  0.9917625420735319  0.6498282533577177  0.4226022674618267   T   T   T
  0.9909593821929705  0.9819471320878816  0.4228759430044840   T   T   T
  0.2787782814939288  0.4231620526995114  0.5436000601628510   T   T   T
 
  0.00000000E+00  0.00000000E+00  0.00000000E+00
  0.00000000E+00  0.00000000E+00  0.00000000E+00
  0.00000000E+00  0.00000000E+00  0.00000000E+00
  0.00000000E+00  0.00000000E+00  0.00000000E+00
  0.00000000E+00  0.00000000E+00  0.00000000E+00
  0.00000000E+00  0.00000000E+00  0.00000000E+00
  0.00000000E+00  0.00000000E+00  0.00000000E+00
  0.00000000E+00  0.00000000E+00  0.00000000E+00
  0.00000000E+00  0.00000000E+00  0.00000000E+00
  0.00000000E+00  0.00000000E+00  0.00000000E+00
  0.00000000E+00  0.00000000E+00  0.00000000E+00
  0.00000000E+00  0.00000000E+00  0.00000000E+00
  0.00000000E+00  0.00000000E+00  0.00000000E+00
  0.00000000E+00  0.00000000E+00  0.00000000E+00
  0.00000000E+00  0.00000000E+00  0.00000000E+00
  0.00000000E+00  0.00000000E+00  0.00000000E+00
  0.00000000E+00  0.00000000E+00  0.00000000E+00
  0.00000000E+00  0.00000000E+00  0.00000000E+00
  0.00000000E+00  0.00000000E+00  0.00000000E+00
  0.00000000E+00  0.00000000E+00  0.00000000E+00
  0.00000000E+00  0.00000000E+00  0.00000000E+00
  0.00000000E+00  0.00000000E+00  0.00000000E+00
  0.00000000E+00  0.00000000E+00  0.00000000E+00
  0.00000000E+00  0.00000000E+00  0.00000000E+00
  0.00000000E+00  0.00000000E+00  0.00000000E+00
  0.00000000E+00  0.00000000E+00  0.00000000E+00
  0.00000000E+00  0.00000000E+00  0.00000000E+00
  0.00000000E+00  0.00000000E+00  0.00000000E+00
  0.00000000E+00  0.00000000E+00  0.00000000E+00
  0.00000000E+00  0.00000000E+00  0.00000000E+00
  0.00000000E+00  0.00000000E+00  0.00000000E+00
  0.00000000E+00  0.00000000E+00  0.00000000E+00
  0.00000000E+00  0.00000000E+00  0.00000000E+00
  0.00000000E+00  0.00000000E+00  0.00000000E+00
  0.00000000E+00  0.00000000E+00  0.00000000E+00
  0.00000000E+00  0.00000000E+00  0.00000000E+00
  0.00000000E+00  0.00000000E+00  0.00000000E+00
  0.00000000E+00  0.00000000E+00  0.00000000E+00
  0.00000000E+00  0.00000000E+00  0.00000000E+00
  0.00000000E+00  0.00000000E+00  0.00000000E+00
  0.00000000E+00  0.00000000E+00  0.00000000E+00
  0.00000000E+00  0.00000000E+00  0.00000000E+00
  0.00000000E+00  0.00000000E+00  0.00000000E+00
  0.00000000E+00  0.00000000E+00  0.00000000E+00
  0.00000000E+00  0.00000000E+00  0.00000000E+00
  0.00000000E+00  0.00000000E+00  0.00000000E+00
  0.00000000E+00  0.00000000E+00  0.00000000E+00
  0.00000000E+00  0.00000000E+00  0.00000000E+00
  0.00000000E+00  0.00000000E+00  0.00000000E+00
  0.00000000E+00  0.00000000E+00  0.00000000E+00
  0.00000000E+00  0.00000000E+00  0.00000000E+00
  0.00000000E+00  0.00000000E+00  0.00000000E+00
  0.00000000E+00  0.00000000E+00  0.00000000E+00
  0.00000000E+00  0.00000000E+00  0.00000000E+00
  0.00000000E+00  0.00000000E+00  0.00000000E+00
  0.00000000E+00  0.00000000E+00  0.00000000E+00
  0.00000000E+00  0.00000000E+00  0.00000000E+00
  0.00000000E+00  0.00000000E+00  0.00000000E+00
  0.00000000E+00  0.00000000E+00  0.00000000E+00
  0.00000000E+00  0.00000000E+00  0.00000000E+00
  0.00000000E+00  0.00000000E+00  0.00000000E+00
  0.00000000E+00  0.00000000E+00  0.00000000E+00
  0.00000000E+00  0.00000000E+00  0.00000000E+00
  0.00000000E+00  0.00000000E+00  0.00000000E+00
  0.00000000E+00  0.00000000E+00  0.00000000E+00
  0.00000000E+00  0.00000000E+00  0.00000000E+00
  0.00000000E+00  0.00000000E+00  0.00000000E+00
  0.00000000E+00  0.00000000E+00  0.00000000E+00
  0.00000000E+00  0.00000000E+00  0.00000000E+00
  0.00000000E+00  0.00000000E+00  0.00000000E+00
  0.00000000E+00  0.00000000E+00  0.00000000E+00
  0.00000000E+00  0.00000000E+00  0.00000000E+00
  0.00000000E+00  0.00000000E+00  0.00000000E+00
  0.00000000E+00  0.00000000E+00  0.00000000E+00
  0.00000000E+00  0.00000000E+00  0.00000000E+00
  0.00000000E+00  0.00000000E+00  0.00000000E+00
  0.00000000E+00  0.00000000E+00  0.00000000E+00
  0.00000000E+00  0.00000000E+00  0.00000000E+00
  0.00000000E+00  0.00000000E+00  0.00000000E+00
  0.00000000E+00  0.00000000E+00  0.00000000E+00
  0.00000000E+00  0.00000000E+00  0.00000000E+00
  0.00000000E+00  0.00000000E+00  0.00000000E+00
  0.00000000E+00  0.00000000E+00  0.00000000E+00
  0.00000000E+00  0.00000000E+00  0.00000000E+00
  0.00000000E+00  0.00000000E+00  0.00000000E+00
  0.00000000E+00  0.00000000E+00  0.00000000E+00
  0.00000000E+00  0.00000000E+00  0.00000000E+00
  0.00000000E+00  0.00000000E+00  0.00000000E+00
  0.00000000E+00  0.00000000E+00  0.00000000E+00
  0.00000000E+00  0.00000000E+00  0.00000000E+00
  0.00000000E+00  0.00000000E+00  0.00000000E+00
  0.00000000E+00  0.00000000E+00  0.00000000E+00
  0.00000000E+00  0.00000000E+00  0.00000000E+00
  0.00000000E+00  0.00000000E+00  0.00000000E+00
  0.00000000E+00  0.00000000E+00  0.00000000E+00
  0.00000000E+00  0.00000000E+00  0.00000000E+00
  0.00000000E+00  0.00000000E+00  0.00000000E+00
  0.00000000E+00  0.00000000E+00  0.00000000E+00
  0.00000000E+00  0.00000000E+00  0.00000000E+00
  0.00000000E+00  0.00000000E+00  0.00000000E+00
  0.00000000E+00  0.00000000E+00  0.00000000E+00
  0.00000000E+00  0.00000000E+00  0.00000000E+00
  0.00000000E+00  0.00000000E+00  0.00000000E+00
  0.00000000E+00  0.00000000E+00  0.00000000E+00
  0.00000000E+00  0.00000000E+00  0.00000000E+00
  0.00000000E+00  0.00000000E+00  0.00000000E+00
  0.00000000E+00  0.00000000E+00  0.00000000E+00
  0.00000000E+00  0.00000000E+00  0.00000000E+00
  0.00000000E+00  0.00000000E+00  0.00000000E+00
  0.00000000E+00  0.00000000E+00  0.00000000E+00
  0.00000000E+00  0.00000000E+00  0.00000000E+00
