7n                                      
   1.00000000000000     
     9.7226874999999993    3.3680377500000001    0.0000000000000000
    -7.7781500000000001    6.7360755000000001    0.0000000000000000
     0.0000002500000000    0.0000002500000000   26.1140000000000008
   C    Ce   H    O 
     1    28     1    57
Selective dynamics
Direct
  0.3918280171280903  0.4383746790475366  0.5023127466374344   T   T   T
  0.3675403113482219  0.4587151713451042  0.0304000000000002   F   F   F
  0.5103974542053661  0.8872865999165316  0.0304000000000002   F   F   F
  0.7961117399196512  0.7444294570593856  0.0304000000000002   F   F   F
  0.6532545970625064  0.3158580284879661  0.0304000000000002   F   F   F
  0.9389688827767971  0.1730008856308192  0.0304000000000002   F   F   F
  0.2246831684910830  0.0301437427736738  0.0304000000000002   F   F   F
  0.0818260256339371  0.6015723142022494  0.0304000000000002   F   F   F
  0.2723003257849044  0.8396751776658107  0.1520000000000010   F   F   F
  0.1294431829277726  0.4111037490943792  0.1520000000000010   F   F   F
  0.4151574686420504  0.2682466062372411  0.1520000000000010   F   F   F
  0.5580146114991874  0.6968180348086701  0.1520000000000010   F   F   F
  0.8437288972134732  0.5539608919515243  0.1520000000000010   F   F   F
  0.7008717543563339  0.1253894633801020  0.1520000000000010   F   F   F
  0.9865860400706171  0.9825323205229554  0.1520000000000010   F   F   F
  0.4646918615329863  0.0779203617475008  0.2720176423940837   T   T   T
  0.3193057111468052  0.6487767560999360  0.2726493800019493   T   T   T
  0.6049459240162600  0.5058067479484095  0.2730395183394330   T   T   T
  0.0337420776730817  0.7926242367304938  0.2732705705357299   T   T   T
  0.8912097926879944  0.3644876490359870  0.2717152874980257   T   T   T
  0.7492649533005867  0.9335524810116733  0.2733407977915038   T   T   T
  0.1773500147320576  0.2206307218603228  0.2730077650208201   T   T   T
  0.2379566085012139  0.0319380946196876  0.3918868381343696   T   T   T
  0.5112570080908349  0.8846605892519115  0.3928646674261992   T   T   T
  0.7896068936758589  0.7355857790934629  0.3949921530447269   T   T   T
  0.3630622739636913  0.4570957531415237  0.3935387066433730   T   T   T
  0.0815346903136358  0.6034119872357749  0.3926357731469866   T   T   T
  0.6555957172642273  0.3156514430846800  0.3928023950309375   T   T   T
  0.9357963754160601  0.1813704194006361  0.3913547941542041   T   T   T
  0.9989324823906819  0.9978562062525040  0.4752199324152650   T   T   T
  0.0342031648819088  0.7920637411935161  0.0000000000000000   F   F   F
  0.1770603077390475  0.2206351697649467  0.0000000000000000   F   F   F
  0.8913460220247630  0.3634923126220924  0.0000000000000000   F   F   F
  0.6056317363104782  0.5063494554792314  0.0000000000000000   F   F   F
  0.7484888791676240  0.9349208840506597  0.0000000000000000   F   F   F
  0.4627745934533323  0.0777780269078008  0.0000000000000000   F   F   F
  0.3199174505961934  0.6492065983363772  0.0000000000000000   F   F   F
  0.1294431721002519  0.4111037443538581  0.0608000000000004   F   F   F
  0.2723003149573918  0.8396751729252897  0.0608000000000004   F   F   F
  0.7008717435288295  0.1253894586395655  0.0608000000000004   F   F   F
  0.4151574578145441  0.2682466014967114  0.0608000000000004   F   F   F
  0.5580146006716760  0.6968180300681439  0.0608000000000004   F   F   F
  0.8437288863859679  0.5539608872110050  0.0608000000000004   F   F   F
  0.9865860292431066  0.9825323157824265  0.0608000000000004   F   F   F
  0.9389688936043038  0.1730008903713469  0.1216000000000008   F   F   F
  0.6532546078900552  0.3158580332284728  0.1216000000000008   F   F   F
  0.2246831793185961  0.0301437475142023  0.1216000000000008   F   F   F
  0.5103974650328661  0.8872866046570169  0.1216000000000008   F   F   F
  0.3675403221757416  0.4587151760856235  0.1216000000000008   F   F   F
  0.0818260364614502  0.6015723189427703  0.1216000000000008   F   F   F
  0.7961117507471507  0.7444294617998782  0.1216000000000008   F   F   F
  0.0342031865369279  0.7920637506745648  0.1824000000000012   F   F   F
  0.3199174722512197  0.6492066078174261  0.1824000000000012   F   F   F
  0.6056317579655046  0.5063494649602800  0.1824000000000012   F   F   F
  0.8913460436797964  0.3634923221031341  0.1824000000000012   F   F   F
  0.7484889008226456  0.9349208935317094  0.1824000000000012   F   F   F
  0.1770603293940738  0.2206351792459955  0.1824000000000012   F   F   F
  0.4627746151083585  0.0777780363888496  0.1824000000000012   F   F   F
  0.1296147589027594  0.4120871112448638  0.2423058735953904   T   T   T
  0.4154549338314208  0.2686246543488248  0.2423256752554506   T   T   T
  0.7008293574890465  0.1244144431547851  0.2423496898953815   T   T   T
  0.8438366861297650  0.5537703418416990  0.2421772357518595   T   T   T
  0.2730116400857496  0.8397513632683170  0.2426380539310288   T   T   T
  0.5563828396308870  0.6954597708152712  0.2426532392243121   T   T   T
  0.9876994781444458  0.9830710561348489  0.2430305535529322   T   T   T
  0.5121997082108003  0.8856240095626720  0.3038297212529010   T   T   T
  0.7946347518924569  0.7417570589749436  0.3022446599310487   T   T   T
  0.2293175990852025  0.0326286767496211  0.3030800549646109   T   T   T
  0.0799963658401887  0.6033811919177428  0.3035342907100296   T   T   T
  0.6539486269561298  0.3158143916831841  0.3029147506025787   T   T   T
  0.9401446042836517  0.1753762940866110  0.3026776258310210   T   T   T
  0.3638717419418477  0.4560986987327659  0.3038466144568122   T   T   T
  0.4673180043126134  0.0770832127198282  0.3617505016153272   T   T   T
  0.0412609317089992  0.8013443146255955  0.3638423034490667   T   T   T
  0.8917823481519773  0.3637893360102644  0.3606925476827469   T   T   T
  0.3157417834530671  0.6473184109935745  0.3617521834401238   T   T   T
  0.5969803713927020  0.4968383726265594  0.3632130670971238   T   T   T
  0.7561420297917123  0.9427141753953524  0.3635695531384425   T   T   T
  0.1708769736653508  0.2123984842231957  0.3639325832697137   T   T   T
  0.1249785137081083  0.4104915258645384  0.4225544743589333   T   T   T
  0.4142283490943356  0.2590045090960502  0.4240763706243184   T   T   T
  0.5423438389858251  0.6936561100118612  0.4237891590853532   T   T   T
  0.9946811121431516  0.9920577238734077  0.4380427801365579   T   T   T
  0.2783178685465794  0.8426895908295889  0.4236117839850596   T   T   T
  0.8477526185378987  0.5417922203867607  0.4241872503389927   T   T   T
  0.7048887547712414  0.1299975873466368  0.4236862617337971   T   T   T
  0.4222702118063791  0.4268016828027186  0.5435165642274679   T   T   T
 
  0.00000000E+00  0.00000000E+00  0.00000000E+00
  0.00000000E+00  0.00000000E+00  0.00000000E+00
  0.00000000E+00  0.00000000E+00  0.00000000E+00
  0.00000000E+00  0.00000000E+00  0.00000000E+00
  0.00000000E+00  0.00000000E+00  0.00000000E+00
  0.00000000E+00  0.00000000E+00  0.00000000E+00
  0.00000000E+00  0.00000000E+00  0.00000000E+00
  0.00000000E+00  0.00000000E+00  0.00000000E+00
  0.00000000E+00  0.00000000E+00  0.00000000E+00
  0.00000000E+00  0.00000000E+00  0.00000000E+00
  0.00000000E+00  0.00000000E+00  0.00000000E+00
  0.00000000E+00  0.00000000E+00  0.00000000E+00
  0.00000000E+00  0.00000000E+00  0.00000000E+00
  0.00000000E+00  0.00000000E+00  0.00000000E+00
  0.00000000E+00  0.00000000E+00  0.00000000E+00
  0.00000000E+00  0.00000000E+00  0.00000000E+00
  0.00000000E+00  0.00000000E+00  0.00000000E+00
  0.00000000E+00  0.00000000E+00  0.00000000E+00
  0.00000000E+00  0.00000000E+00  0.00000000E+00
  0.00000000E+00  0.00000000E+00  0.00000000E+00
  0.00000000E+00  0.00000000E+00  0.00000000E+00
  0.00000000E+00  0.00000000E+00  0.00000000E+00
  0.00000000E+00  0.00000000E+00  0.00000000E+00
  0.00000000E+00  0.00000000E+00  0.00000000E+00
  0.00000000E+00  0.00000000E+00  0.00000000E+00
  0.00000000E+00  0.00000000E+00  0.00000000E+00
  0.00000000E+00  0.00000000E+00  0.00000000E+00
  0.00000000E+00  0.00000000E+00  0.00000000E+00
  0.00000000E+00  0.00000000E+00  0.00000000E+00
  0.00000000E+00  0.00000000E+00  0.00000000E+00
  0.00000000E+00  0.00000000E+00  0.00000000E+00
  0.00000000E+00  0.00000000E+00  0.00000000E+00
  0.00000000E+00  0.00000000E+00  0.00000000E+00
  0.00000000E+00  0.00000000E+00  0.00000000E+00
  0.00000000E+00  0.00000000E+00  0.00000000E+00
  0.00000000E+00  0.00000000E+00  0.00000000E+00
  0.00000000E+00  0.00000000E+00  0.00000000E+00
  0.00000000E+00  0.00000000E+00  0.00000000E+00
  0.00000000E+00  0.00000000E+00  0.00000000E+00
  0.00000000E+00  0.00000000E+00  0.00000000E+00
  0.00000000E+00  0.00000000E+00  0.00000000E+00
  0.00000000E+00  0.00000000E+00  0.00000000E+00
  0.00000000E+00  0.00000000E+00  0.00000000E+00
  0.00000000E+00  0.00000000E+00  0.00000000E+00
  0.00000000E+00  0.00000000E+00  0.00000000E+00
  0.00000000E+00  0.00000000E+00  0.00000000E+00
  0.00000000E+00  0.00000000E+00  0.00000000E+00
  0.00000000E+00  0.00000000E+00  0.00000000E+00
  0.00000000E+00  0.00000000E+00  0.00000000E+00
  0.00000000E+00  0.00000000E+00  0.00000000E+00
  0.00000000E+00  0.00000000E+00  0.00000000E+00
  0.00000000E+00  0.00000000E+00  0.00000000E+00
  0.00000000E+00  0.00000000E+00  0.00000000E+00
  0.00000000E+00  0.00000000E+00  0.00000000E+00
  0.00000000E+00  0.00000000E+00  0.00000000E+00
  0.00000000E+00  0.00000000E+00  0.00000000E+00
  0.00000000E+00  0.00000000E+00  0.00000000E+00
  0.00000000E+00  0.00000000E+00  0.00000000E+00
  0.00000000E+00  0.00000000E+00  0.00000000E+00
  0.00000000E+00  0.00000000E+00  0.00000000E+00
  0.00000000E+00  0.00000000E+00  0.00000000E+00
  0.00000000E+00  0.00000000E+00  0.00000000E+00
  0.00000000E+00  0.00000000E+00  0.00000000E+00
  0.00000000E+00  0.00000000E+00  0.00000000E+00
  0.00000000E+00  0.00000000E+00  0.00000000E+00
  0.00000000E+00  0.00000000E+00  0.00000000E+00
  0.00000000E+00  0.00000000E+00  0.00000000E+00
  0.00000000E+00  0.00000000E+00  0.00000000E+00
  0.00000000E+00  0.00000000E+00  0.00000000E+00
  0.00000000E+00  0.00000000E+00  0.00000000E+00
  0.00000000E+00  0.00000000E+00  0.00000000E+00
  0.00000000E+00  0.00000000E+00  0.00000000E+00
  0.00000000E+00  0.00000000E+00  0.00000000E+00
  0.00000000E+00  0.00000000E+00  0.00000000E+00
  0.00000000E+00  0.00000000E+00  0.00000000E+00
  0.00000000E+00  0.00000000E+00  0.00000000E+00
  0.00000000E+00  0.00000000E+00  0.00000000E+00
  0.00000000E+00  0.00000000E+00  0.00000000E+00
  0.00000000E+00  0.00000000E+00  0.00000000E+00
  0.00000000E+00  0.00000000E+00  0.00000000E+00
  0.00000000E+00  0.00000000E+00  0.00000000E+00
  0.00000000E+00  0.00000000E+00  0.00000000E+00
  0.00000000E+00  0.00000000E+00  0.00000000E+00
  0.00000000E+00  0.00000000E+00  0.00000000E+00
  0.00000000E+00  0.00000000E+00  0.00000000E+00
  0.00000000E+00  0.00000000E+00  0.00000000E+00
  0.00000000E+00  0.00000000E+00  0.00000000E+00
