7n                                      
   1.00000000000000     
     9.7226874999999993    3.3680377500000001    0.0000000000000000
    -7.7781500000000001    6.7360755000000001    0.0000000000000000
     0.0000002500000000    0.0000002500000000   26.1140000000000008
   C    Ce   H    O 
     1    28     1    57
Selective dynamics
Direct
  0.4684253627062024  0.3233887075333742  0.5227842122213016   T   T   T
  0.2683831485304751  0.0653474828670750  0.0304000000000002   F   F   F
  0.1255260056733293  0.6367760542956428  0.0304000000000002   F   F   F
  0.4112402913876138  0.4939189114384981  0.0304000000000002   F   F   F
  0.5540974342447600  0.9224903400099288  0.0304000000000002   F   F   F
  0.8398117199590444  0.7796331971527904  0.0304000000000002   F   F   F
  0.6969545771019057  0.3510617685813600  0.0304000000000002   F   F   F
  0.9826688628161887  0.2082046257242128  0.0304000000000002   F   F   F
  0.3160003058242960  0.8748789177592111  0.1520000000000010   F   F   F
  0.1731431629671575  0.4463074891877808  0.1520000000000010   F   F   F
  0.4588574486814422  0.3034503463306350  0.1520000000000010   F   F   F
  0.6017145915385811  0.7320217749020657  0.1520000000000010   F   F   F
  0.8874288772528653  0.5891646320449264  0.1520000000000010   F   F   F
  0.7445717343957268  0.1605932034734962  0.1520000000000010   F   F   F
  0.0302860201100117  0.0177360606163503  0.1520000000000010   F   F   F
  0.9367119300792814  0.4006559193697887  0.2716782579313924   T   T   T
  0.3633337401503712  0.6860831015927510  0.2722824452034436   T   T   T
  0.0769841209389535  0.8262982851170487  0.2723108651183436   T   T   T
  0.7930455601653306  0.9705639058391606  0.2731914221115290   T   T   T
  0.5081428349695547  0.1151846072739403  0.2737942249691390   T   T   T
  0.2212596735429659  0.2557420944476369  0.2741289391066752   T   T   T
  0.6462260574149621  0.5389146731718830  0.2734825024753116   T   T   T
  0.2612341648903924  0.0475730842789784  0.3929779661936714   T   T   T
  0.7178568622553936  0.3564409104492069  0.3933348543073087   T   T   T
  0.4033306705040746  0.5100083304428794  0.3935648758791230   T   T   T
  0.1269104326702200  0.6415097304435652  0.3947373718140018   T   T   T
  0.5599574242682013  0.9282356237600471  0.3942647500317996   T   T   T
  0.9851925077199931  0.2167256478560867  0.3932156099951563   T   T   T
  0.8266951656738453  0.7660668888741311  0.3927094070095948   T   T   T
  0.9995975509402111  1.0002111147344483  0.4773730497955544   T   T   T
  0.0779031449213008  0.8272674812869170  0.0000000000000000   F   F   F
  0.2207602877784396  0.2558389098583403  0.0000000000000000   F   F   F
  0.9350460020641549  0.3986960527154862  0.0000000000000000   F   F   F
  0.6493317163498702  0.5415531955726252  0.0000000000000000   F   F   F
  0.5064745734927314  0.1129817670012014  0.0000000000000000   F   F   F
  0.7921888592070158  0.9701246241440535  0.0000000000000000   F   F   F
  0.3636174306355854  0.6844103384297708  0.0000000000000000   F   F   F
  0.1731431521396370  0.4463074844472307  0.0608000000000004   F   F   F
  0.3160002949967833  0.8748789130186836  0.0608000000000004   F   F   F
  0.7445717235682071  0.1605931987329464  0.0608000000000004   F   F   F
  0.4588574378539218  0.3034503415900848  0.0608000000000004   F   F   F
  0.6017145807110682  0.7320217701615450  0.0608000000000004   F   F   F
  0.8874288664253603  0.5891646273043988  0.0608000000000004   F   F   F
  0.0302860092824986  0.0177360558758295  0.0608000000000004   F   F   F
  0.6969545879294260  0.3510617733218795  0.1216000000000008   F   F   F
  0.9826688736436959  0.2082046304647409  0.1216000000000008   F   F   F
  0.2683831593579882  0.0653474876075961  0.1216000000000008   F   F   F
  0.5540974450722674  0.9224903447504281  0.1216000000000008   F   F   F
  0.4112403022151553  0.4939189161790112  0.1216000000000008   F   F   F
  0.1255260165008485  0.6367760590361642  0.1216000000000008   F   F   F
  0.8398117307865505  0.7796332018932901  0.1216000000000008   F   F   F
  0.0779031665763200  0.8272674907679659  0.1824000000000012   F   F   F
  0.3636174522906189  0.6844103479108199  0.1824000000000012   F   F   F
  0.6493317380049390  0.5415532050536598  0.1824000000000012   F   F   F
  0.9350460237192095  0.3986960621965210  0.1824000000000012   F   F   F
  0.2207603094334729  0.2558389193393893  0.1824000000000012   F   F   F
  0.7921888808620569  0.9701246336250958  0.1824000000000012   F   F   F
  0.5064745951477583  0.1129817764822432  0.1824000000000012   F   F   F
  0.7460982592757098  0.1602797514882308  0.2425206030319600   T   T   T
  0.3181156212548022  0.8754810924336464  0.2425116736307467   T   T   T
  0.1729220930964012  0.4472282148939136  0.2422289563791686   T   T   T
  0.8877419980003212  0.5904282536699554  0.2418596499783527   T   T   T
  0.6011808483465931  0.7336228198681071  0.2427412426391417   T   T   T
  0.0282018605813451  0.0160836199179493  0.2432486537303545   T   T   T
  0.4584205457009228  0.3037053060365424  0.2430113351652923   T   T   T
  0.7000880890111992  0.3528019970631832  0.3013483798980903   T   T   T
  0.2690138516118920  0.0641169049690190  0.3016552749774429   T   T   T
  0.4074159067772819  0.4937074571630822  0.3022661441531761   T   T   T
  0.1255083187380492  0.6405387627260708  0.3032667268228252   T   T   T
  0.5591167059527856  0.9289902772957437  0.3052450415184284   T   T   T
  0.9868984848359179  0.2113711012689343  0.3036765832194429   T   T   T
  0.8318389228035677  0.7706874292902433  0.3040045963039470   T   T   T
  0.8061464614697178  0.9727862700974659  0.3625345498285888   T   T   T
  0.9430849831553756  0.4028044585124758  0.3612282322690456   T   T   T
  0.0689847891352633  0.8276500315489230  0.3626482827241435   T   T   T
  0.3638570721384171  0.6931909547983924  0.3614243357535541   T   T   T
  0.5080655213322373  0.1196400887015230  0.3669582746889368   T   T   T
  0.6400001184564953  0.5319838614718814  0.3671744031911682   T   T   T
  0.2186416183968076  0.2510041323939387  0.3685114043507773   T   T   T
  0.3181883160677157  0.8636613099750219  0.4271163852858770   T   T   T
  0.6111585227080838  0.7488411350729164  0.4259771950255737   T   T   T
  0.8988490643494083  0.6042652537103859  0.4271533263373495   T   T   T
  0.7569648251008463  0.1542011239592745  0.4261593615615757   T   T   T
  0.1579081576735145  0.4497009779230158  0.4275723876282780   T   T   T
  0.0192412295421308  0.0109836544540746  0.4407309060358941   T   T   T
  0.4659391536027082  0.3091518035498581  0.4776508287524235   T   T   T
  0.4703899436231339  0.3374909949275244  0.5671674337704596   T   T   T
 
  0.00000000E+00  0.00000000E+00  0.00000000E+00
  0.00000000E+00  0.00000000E+00  0.00000000E+00
  0.00000000E+00  0.00000000E+00  0.00000000E+00
  0.00000000E+00  0.00000000E+00  0.00000000E+00
  0.00000000E+00  0.00000000E+00  0.00000000E+00
  0.00000000E+00  0.00000000E+00  0.00000000E+00
  0.00000000E+00  0.00000000E+00  0.00000000E+00
  0.00000000E+00  0.00000000E+00  0.00000000E+00
  0.00000000E+00  0.00000000E+00  0.00000000E+00
  0.00000000E+00  0.00000000E+00  0.00000000E+00
  0.00000000E+00  0.00000000E+00  0.00000000E+00
  0.00000000E+00  0.00000000E+00  0.00000000E+00
  0.00000000E+00  0.00000000E+00  0.00000000E+00
  0.00000000E+00  0.00000000E+00  0.00000000E+00
  0.00000000E+00  0.00000000E+00  0.00000000E+00
  0.00000000E+00  0.00000000E+00  0.00000000E+00
  0.00000000E+00  0.00000000E+00  0.00000000E+00
  0.00000000E+00  0.00000000E+00  0.00000000E+00
  0.00000000E+00  0.00000000E+00  0.00000000E+00
  0.00000000E+00  0.00000000E+00  0.00000000E+00
  0.00000000E+00  0.00000000E+00  0.00000000E+00
  0.00000000E+00  0.00000000E+00  0.00000000E+00
  0.00000000E+00  0.00000000E+00  0.00000000E+00
  0.00000000E+00  0.00000000E+00  0.00000000E+00
  0.00000000E+00  0.00000000E+00  0.00000000E+00
  0.00000000E+00  0.00000000E+00  0.00000000E+00
  0.00000000E+00  0.00000000E+00  0.00000000E+00
  0.00000000E+00  0.00000000E+00  0.00000000E+00
  0.00000000E+00  0.00000000E+00  0.00000000E+00
  0.00000000E+00  0.00000000E+00  0.00000000E+00
  0.00000000E+00  0.00000000E+00  0.00000000E+00
  0.00000000E+00  0.00000000E+00  0.00000000E+00
  0.00000000E+00  0.00000000E+00  0.00000000E+00
  0.00000000E+00  0.00000000E+00  0.00000000E+00
  0.00000000E+00  0.00000000E+00  0.00000000E+00
  0.00000000E+00  0.00000000E+00  0.00000000E+00
  0.00000000E+00  0.00000000E+00  0.00000000E+00
  0.00000000E+00  0.00000000E+00  0.00000000E+00
  0.00000000E+00  0.00000000E+00  0.00000000E+00
  0.00000000E+00  0.00000000E+00  0.00000000E+00
  0.00000000E+00  0.00000000E+00  0.00000000E+00
  0.00000000E+00  0.00000000E+00  0.00000000E+00
  0.00000000E+00  0.00000000E+00  0.00000000E+00
  0.00000000E+00  0.00000000E+00  0.00000000E+00
  0.00000000E+00  0.00000000E+00  0.00000000E+00
  0.00000000E+00  0.00000000E+00  0.00000000E+00
  0.00000000E+00  0.00000000E+00  0.00000000E+00
  0.00000000E+00  0.00000000E+00  0.00000000E+00
  0.00000000E+00  0.00000000E+00  0.00000000E+00
  0.00000000E+00  0.00000000E+00  0.00000000E+00
  0.00000000E+00  0.00000000E+00  0.00000000E+00
  0.00000000E+00  0.00000000E+00  0.00000000E+00
  0.00000000E+00  0.00000000E+00  0.00000000E+00
  0.00000000E+00  0.00000000E+00  0.00000000E+00
  0.00000000E+00  0.00000000E+00  0.00000000E+00
  0.00000000E+00  0.00000000E+00  0.00000000E+00
  0.00000000E+00  0.00000000E+00  0.00000000E+00
  0.00000000E+00  0.00000000E+00  0.00000000E+00
  0.00000000E+00  0.00000000E+00  0.00000000E+00
  0.00000000E+00  0.00000000E+00  0.00000000E+00
  0.00000000E+00  0.00000000E+00  0.00000000E+00
  0.00000000E+00  0.00000000E+00  0.00000000E+00
  0.00000000E+00  0.00000000E+00  0.00000000E+00
  0.00000000E+00  0.00000000E+00  0.00000000E+00
  0.00000000E+00  0.00000000E+00  0.00000000E+00
  0.00000000E+00  0.00000000E+00  0.00000000E+00
  0.00000000E+00  0.00000000E+00  0.00000000E+00
  0.00000000E+00  0.00000000E+00  0.00000000E+00
  0.00000000E+00  0.00000000E+00  0.00000000E+00
  0.00000000E+00  0.00000000E+00  0.00000000E+00
  0.00000000E+00  0.00000000E+00  0.00000000E+00
  0.00000000E+00  0.00000000E+00  0.00000000E+00
  0.00000000E+00  0.00000000E+00  0.00000000E+00
  0.00000000E+00  0.00000000E+00  0.00000000E+00
  0.00000000E+00  0.00000000E+00  0.00000000E+00
  0.00000000E+00  0.00000000E+00  0.00000000E+00
  0.00000000E+00  0.00000000E+00  0.00000000E+00
  0.00000000E+00  0.00000000E+00  0.00000000E+00
  0.00000000E+00  0.00000000E+00  0.00000000E+00
  0.00000000E+00  0.00000000E+00  0.00000000E+00
  0.00000000E+00  0.00000000E+00  0.00000000E+00
  0.00000000E+00  0.00000000E+00  0.00000000E+00
  0.00000000E+00  0.00000000E+00  0.00000000E+00
  0.00000000E+00  0.00000000E+00  0.00000000E+00
  0.00000000E+00  0.00000000E+00  0.00000000E+00
  0.00000000E+00  0.00000000E+00  0.00000000E+00
  0.00000000E+00  0.00000000E+00  0.00000000E+00
