3n                                      
   1.00000000000000     
     6.7360755000000001    0.0000000000000000    0.0000000000000000
     3.3680377500000001    5.8336125000000001    0.0000000000000000
     0.0000002500000000    0.0000002500000000   26.1140000000000008
   C    Ce   H    O 
     1    12     1    25
Selective dynamics
Direct
  0.4843560613107085  0.1766001241662678  0.4796530973810882   T   T   T
  0.9998110606672551  0.3313328024764814  0.0304000000000009   F   F   F
  0.3331443940005754  0.6646661358098273  0.0304000000000009   F   F   F
  0.6664777273339016  0.9979994691431652  0.0304000000000009   F   F   F
  0.3331577330562070  0.3313194847766802  0.1520000000000057   F   F   F
  0.6664910663895356  0.6646528181099995  0.1520000000000057   F   F   F
  0.9998243997228631  0.9979861514433352  0.1520000000000057   F   F   F
  0.0007062721823053  0.6652728512899126  0.2727653755134862   T   T   T
  0.3336756467534742  0.9959992336139094  0.2729528050182435   T   T   T
  0.6653454049105949  0.3306845820538474  0.2730686941396324   T   T   T
 -0.0083032051400014  0.3454885958337051  0.3920652708756894   T   T   T
  0.6628646139506748  0.9867634997562800  0.3936100021498007   T   T   T
  0.3441886396067594  0.6596109622160493  0.3954092073905530   T   T   T
  0.9805815524867372  1.0108632182404207  0.4747802818414999   T   T   T
  0.3331710592367115  0.9979727985680712  0.0000000000000000   F   F   F
  0.6665043925700416  0.3313061319014090  0.0000000000000000   F   F   F
  0.9998377259033735  0.6646394652347539  0.0000000000000000   F   F   F
  0.3331577287644937  0.3313194730515243  0.0608000000000018   F   F   F
  0.6664910620978333  0.6646528063848514  0.0608000000000018   F   F   F
  0.9998243954311582  0.9979861397181927  0.0608000000000018   F   F   F
  0.9998110649589569  0.3313328142016363  0.1216000000000035   F   F   F
  0.6664777316256143  0.9979994808683047  0.1216000000000035   F   F   F
  0.3331443982922748  0.6646661475349916  0.1216000000000035   F   F   F
  0.6665044011534524  0.3313061553517045  0.1824000000000046   F   F   F
  0.3331710678201088  0.9979728220183934  0.1824000000000046   F   F   F
  0.9998377344867704  0.6646394886850587  0.1824000000000046   F   F   F
  0.6676643992284801  0.6639835843762704  0.2421567594915398   T   T   T
  0.9994953085387309  0.9985840594936345  0.2432630440383165   T   T   T
  0.3325818767432380  0.3303574693598850  0.2429047454938492   T   T   T
  0.3415736208109262  0.6602052402854703  0.3028070283276100   T   T   T
  0.6636726476233782  0.9938018808365487  0.3030986253165486   T   T   T
  0.9946011995922071  0.3374681018322441  0.3036282036371369   T   T   T
  1.0006883833236582  0.6691755339219982  0.3632286980659289   T   T   T
  0.6825928467554994  0.3061100925300574  0.3653180254977723   T   T   T
  0.3226734337150304  1.0111445512639021  0.3640884550646982   T   T   T
  0.6856276352096193  0.6573248557703880  0.4238492391694724   T   T   T
  0.3157514762498230  0.3275670623650231  0.4330438472147124   T   T   T
  1.0027783908451304  1.0031389118357599  0.4378084264419669   T   T   T
  0.4171794547363387  0.2420465317737225  0.5218150360687900   T   T   T
 
  0.00000000E+00  0.00000000E+00  0.00000000E+00
  0.00000000E+00  0.00000000E+00  0.00000000E+00
  0.00000000E+00  0.00000000E+00  0.00000000E+00
  0.00000000E+00  0.00000000E+00  0.00000000E+00
  0.00000000E+00  0.00000000E+00  0.00000000E+00
  0.00000000E+00  0.00000000E+00  0.00000000E+00
  0.00000000E+00  0.00000000E+00  0.00000000E+00
  0.00000000E+00  0.00000000E+00  0.00000000E+00
  0.00000000E+00  0.00000000E+00  0.00000000E+00
  0.00000000E+00  0.00000000E+00  0.00000000E+00
  0.00000000E+00  0.00000000E+00  0.00000000E+00
  0.00000000E+00  0.00000000E+00  0.00000000E+00
  0.00000000E+00  0.00000000E+00  0.00000000E+00
  0.00000000E+00  0.00000000E+00  0.00000000E+00
  0.00000000E+00  0.00000000E+00  0.00000000E+00
  0.00000000E+00  0.00000000E+00  0.00000000E+00
  0.00000000E+00  0.00000000E+00  0.00000000E+00
  0.00000000E+00  0.00000000E+00  0.00000000E+00
  0.00000000E+00  0.00000000E+00  0.00000000E+00
  0.00000000E+00  0.00000000E+00  0.00000000E+00
  0.00000000E+00  0.00000000E+00  0.00000000E+00
  0.00000000E+00  0.00000000E+00  0.00000000E+00
  0.00000000E+00  0.00000000E+00  0.00000000E+00
  0.00000000E+00  0.00000000E+00  0.00000000E+00
  0.00000000E+00  0.00000000E+00  0.00000000E+00
  0.00000000E+00  0.00000000E+00  0.00000000E+00
  0.00000000E+00  0.00000000E+00  0.00000000E+00
  0.00000000E+00  0.00000000E+00  0.00000000E+00
  0.00000000E+00  0.00000000E+00  0.00000000E+00
  0.00000000E+00  0.00000000E+00  0.00000000E+00
  0.00000000E+00  0.00000000E+00  0.00000000E+00
  0.00000000E+00  0.00000000E+00  0.00000000E+00
  0.00000000E+00  0.00000000E+00  0.00000000E+00
  0.00000000E+00  0.00000000E+00  0.00000000E+00
  0.00000000E+00  0.00000000E+00  0.00000000E+00
  0.00000000E+00  0.00000000E+00  0.00000000E+00
  0.00000000E+00  0.00000000E+00  0.00000000E+00
  0.00000000E+00  0.00000000E+00  0.00000000E+00
  0.00000000E+00  0.00000000E+00  0.00000000E+00
