7n                                      
   1.00000000000000     
     9.7226874999999993    3.3680377500000001    0.0000000000000000
    -7.7781500000000001    6.7360755000000001    0.0000000000000000
     0.0000002500000000    0.0000002500000000   26.1140000000000008
   C    Ce   H    O 
     1    28     1    57
Selective dynamics
Direct
  0.4027952817000213  0.3719547710737411  0.4800064335254203   T   T   T
  0.2365583221502022  0.0471983008303929  0.0304000000000002   F   F   F
  0.0937011792930553  0.6186268722589582  0.0304000000000002   F   F   F
  0.3794154650073416  0.4757697294018129  0.0304000000000002   F   F   F
  0.5222726078644865  0.9043411579732482  0.0304000000000002   F   F   F
  0.8079868935787639  0.7614840151160883  0.0304000000000002   F   F   F
  0.6651297507216321  0.3329125865446759  0.0304000000000002   F   F   F
  0.9508440364359242  0.1900554436875258  0.0304000000000002   F   F   F
  0.2841754794440219  0.8567297357225202  0.1520000000000010   F   F   F
  0.1413183365868846  0.4281583071511007  0.1520000000000010   F   F   F
  0.4270326223011698  0.2853011642939546  0.1520000000000010   F   F   F
  0.5698897651583040  0.7138725928653812  0.1520000000000010   F   F   F
  0.8556040508725899  0.5710154500082345  0.1520000000000010   F   F   F
  0.7127469080154516  0.1424440214368137  0.1520000000000010   F   F   F
  0.9984611937297232  0.9995868785796505  0.1520000000000010   F   F   F
  0.9021855384633768  0.3819541068163296  0.2725270890825564   T   T   T
  0.3317898614190166  0.6664233910168463  0.2727627641503765   T   T   T
  0.0463310374023580  0.8095002726845725  0.2724072585664856   T   T   T
  0.7609243008564421  0.9510315872398517  0.2727547183252557   T   T   T
  0.4774019330916241  0.0964326434558756  0.2727751235413420   T   T   T
  0.1886070435237288  0.2380535575104180  0.2732376979019374   T   T   T
  0.6149812153258556  0.5202485548212755  0.2731446167968902   T   T   T
  0.2434016601242281  0.0418293230014549  0.3914409811050651   T   T   T
  0.0942820941815933  0.6232779235334625  0.3929796799310003   T   T   T
  0.5276965025436766  0.9050877161947068  0.3930676553446514   T   T   T
  0.9504089319789280  0.1981075652185629  0.3916476728266176   T   T   T
  0.7978994498250278  0.7497425355093691  0.3919008150892019   T   T   T
  0.3731577630145590  0.4790835042760039  0.3943314341343616   T   T   T
  0.6697815034499909  0.3330443948930717  0.3963079251568404   T   T   T
  1.0003761764303580  0.9990779225072188  0.4729967932544304   T   T   T
  0.0460783185410274  0.8091182992502295  0.0000000000000000   F   F   F
  0.1889354613981662  0.2376897278216578  0.0000000000000000   F   F   F
  0.9032211756838808  0.3805468706788019  0.0000000000000000   F   F   F
  0.6175068899695972  0.5234040135359446  0.0000000000000000   F   F   F
  0.7603640328267449  0.9519754421073727  0.0000000000000000   F   F   F
  0.4746497471124583  0.0948325849645214  0.0000000000000000   F   F   F
  0.3317926042553125  0.6662611563930904  0.0000000000000000   F   F   F
  0.1413183257593713  0.4281583024105708  0.0608000000000004   F   F   F
  0.2841754686165106  0.8567297309820036  0.0608000000000004   F   F   F
  0.7127468971879413  0.1424440166962840  0.0608000000000004   F   F   F
  0.4270326114736488  0.2853011595534289  0.0608000000000004   F   F   F
  0.5698897543307982  0.7138725881248555  0.0608000000000004   F   F   F
  0.8556040400450926  0.5710154452677189  0.0608000000000004   F   F   F
  0.9984611829022252  0.9995868738391488  0.0608000000000004   F   F   F
  0.2365583329777152  0.0471983055709153  0.1216000000000008   F   F   F
  0.5222726186919927  0.9043411627137473  0.1216000000000008   F   F   F
  0.3794154758348532  0.4757697341423426  0.1216000000000008   F   F   F
  0.0937011901205674  0.6186268769994812  0.1216000000000008   F   F   F
  0.8079869044062844  0.7614840198566301  0.1216000000000008   F   F   F
  0.9508440472634218  0.1900554484280557  0.1216000000000008   F   F   F
  0.6651297615491470  0.3329125912852008  0.1216000000000008   F   F   F
  0.0460783401960478  0.8091183087312831  0.1824000000000012   F   F   F
  0.3317926259103389  0.6662611658741397  0.1824000000000012   F   F   F
  0.6175069116246238  0.5234040230169928  0.1824000000000012   F   F   F
  0.9032211973389095  0.3805468801598552  0.1824000000000012   F   F   F
  0.7603640544817623  0.9519754515884244  0.1824000000000012   F   F   F
  0.1889354830531929  0.2376897373027091  0.1824000000000012   F   F   F
  0.4746497687674787  0.0948325944455694  0.1824000000000012   F   F   F
  0.7131439383151122  0.1415083548158690  0.2424412063065961   T   T   T
  0.2857375803400137  0.8568534976836203  0.2427263009223549   T   T   T
  0.1408906557467848  0.4294485963536652  0.2426483573700156   T   T   T
  0.8563544929141814  0.5718709809820407  0.2421968534376620   T   T   T
  0.5689775320588850  0.7131214233077634  0.2427745725032998   T   T   T
  0.9977908161610778  0.9988198858194600  0.2431538692699093   T   T   T
  0.4259409231958025  0.2855073424660664  0.2425968928280878   T   T   T
  0.6653925583165426  0.3334839603346000  0.3019883878235514   T   T   T
  0.2397523430948507  0.0484349142303264  0.3026989017127824   T   T   T
  0.0937999575423975  0.6226426319949241  0.3039440941251551   T   T   T
  0.3746358184033073  0.4736612230802669  0.3036062568716226   T   T   T
  0.9509350252950488  0.1923741458165684  0.3031206483957628   T   T   T
  0.5268697512692110  0.9051725676319464  0.3042573075093170   T   T   T
  0.8045564425037779  0.7548573084240606  0.3033720142093059   T   T   T
  0.7728695094820809  0.9523667107834081  0.3622571064336499   T   T   T
  0.9082338222850171  0.3845123735228976  0.3621905165668247   T   T   T
  0.0458942152171869  0.8191064709469059  0.3624168674626073   T   T   T
  0.3315592884772249  0.6688590856373483  0.3626512214522571   T   T   T
  0.4734639573749010  0.0911697018975892  0.3628649203071616   T   T   T
  0.6077846081125811  0.5201389767002476  0.3642812640013703   T   T   T
  0.1835773595698263  0.2294334298150621  0.3641287239041964   T   T   T
 -0.0018422091190497  0.9975439306245217  0.4357214363171013   T   T   T
  0.2831674867696948  0.8563075840430844  0.4231861753839102   T   T   T
  0.5717454150345297  0.7200986295339549  0.4224320871324895   T   T   T
  0.8665705607882251  0.5878657985641511  0.4239096833366805   T   T   T
  0.7207842562407708  0.1319069058230200  0.4239119395055835   T   T   T
  0.1380084816455548  0.4303672469499640  0.4225086719481412   T   T   T
  0.4112412288005395  0.2674230791811982  0.4317958642565249   T   T   T
  0.4107636539052402  0.3310416728609548  0.5216278932206811   T   T   T
 
  0.00000000E+00  0.00000000E+00  0.00000000E+00
  0.00000000E+00  0.00000000E+00  0.00000000E+00
  0.00000000E+00  0.00000000E+00  0.00000000E+00
  0.00000000E+00  0.00000000E+00  0.00000000E+00
  0.00000000E+00  0.00000000E+00  0.00000000E+00
  0.00000000E+00  0.00000000E+00  0.00000000E+00
  0.00000000E+00  0.00000000E+00  0.00000000E+00
  0.00000000E+00  0.00000000E+00  0.00000000E+00
  0.00000000E+00  0.00000000E+00  0.00000000E+00
  0.00000000E+00  0.00000000E+00  0.00000000E+00
  0.00000000E+00  0.00000000E+00  0.00000000E+00
  0.00000000E+00  0.00000000E+00  0.00000000E+00
  0.00000000E+00  0.00000000E+00  0.00000000E+00
  0.00000000E+00  0.00000000E+00  0.00000000E+00
  0.00000000E+00  0.00000000E+00  0.00000000E+00
  0.00000000E+00  0.00000000E+00  0.00000000E+00
  0.00000000E+00  0.00000000E+00  0.00000000E+00
  0.00000000E+00  0.00000000E+00  0.00000000E+00
  0.00000000E+00  0.00000000E+00  0.00000000E+00
  0.00000000E+00  0.00000000E+00  0.00000000E+00
  0.00000000E+00  0.00000000E+00  0.00000000E+00
  0.00000000E+00  0.00000000E+00  0.00000000E+00
  0.00000000E+00  0.00000000E+00  0.00000000E+00
  0.00000000E+00  0.00000000E+00  0.00000000E+00
  0.00000000E+00  0.00000000E+00  0.00000000E+00
  0.00000000E+00  0.00000000E+00  0.00000000E+00
  0.00000000E+00  0.00000000E+00  0.00000000E+00
  0.00000000E+00  0.00000000E+00  0.00000000E+00
  0.00000000E+00  0.00000000E+00  0.00000000E+00
  0.00000000E+00  0.00000000E+00  0.00000000E+00
  0.00000000E+00  0.00000000E+00  0.00000000E+00
  0.00000000E+00  0.00000000E+00  0.00000000E+00
  0.00000000E+00  0.00000000E+00  0.00000000E+00
  0.00000000E+00  0.00000000E+00  0.00000000E+00
  0.00000000E+00  0.00000000E+00  0.00000000E+00
  0.00000000E+00  0.00000000E+00  0.00000000E+00
  0.00000000E+00  0.00000000E+00  0.00000000E+00
  0.00000000E+00  0.00000000E+00  0.00000000E+00
  0.00000000E+00  0.00000000E+00  0.00000000E+00
  0.00000000E+00  0.00000000E+00  0.00000000E+00
  0.00000000E+00  0.00000000E+00  0.00000000E+00
  0.00000000E+00  0.00000000E+00  0.00000000E+00
  0.00000000E+00  0.00000000E+00  0.00000000E+00
  0.00000000E+00  0.00000000E+00  0.00000000E+00
  0.00000000E+00  0.00000000E+00  0.00000000E+00
  0.00000000E+00  0.00000000E+00  0.00000000E+00
  0.00000000E+00  0.00000000E+00  0.00000000E+00
  0.00000000E+00  0.00000000E+00  0.00000000E+00
  0.00000000E+00  0.00000000E+00  0.00000000E+00
  0.00000000E+00  0.00000000E+00  0.00000000E+00
  0.00000000E+00  0.00000000E+00  0.00000000E+00
  0.00000000E+00  0.00000000E+00  0.00000000E+00
  0.00000000E+00  0.00000000E+00  0.00000000E+00
  0.00000000E+00  0.00000000E+00  0.00000000E+00
  0.00000000E+00  0.00000000E+00  0.00000000E+00
  0.00000000E+00  0.00000000E+00  0.00000000E+00
  0.00000000E+00  0.00000000E+00  0.00000000E+00
  0.00000000E+00  0.00000000E+00  0.00000000E+00
  0.00000000E+00  0.00000000E+00  0.00000000E+00
  0.00000000E+00  0.00000000E+00  0.00000000E+00
  0.00000000E+00  0.00000000E+00  0.00000000E+00
  0.00000000E+00  0.00000000E+00  0.00000000E+00
  0.00000000E+00  0.00000000E+00  0.00000000E+00
  0.00000000E+00  0.00000000E+00  0.00000000E+00
  0.00000000E+00  0.00000000E+00  0.00000000E+00
  0.00000000E+00  0.00000000E+00  0.00000000E+00
  0.00000000E+00  0.00000000E+00  0.00000000E+00
  0.00000000E+00  0.00000000E+00  0.00000000E+00
  0.00000000E+00  0.00000000E+00  0.00000000E+00
  0.00000000E+00  0.00000000E+00  0.00000000E+00
  0.00000000E+00  0.00000000E+00  0.00000000E+00
  0.00000000E+00  0.00000000E+00  0.00000000E+00
  0.00000000E+00  0.00000000E+00  0.00000000E+00
  0.00000000E+00  0.00000000E+00  0.00000000E+00
  0.00000000E+00  0.00000000E+00  0.00000000E+00
  0.00000000E+00  0.00000000E+00  0.00000000E+00
  0.00000000E+00  0.00000000E+00  0.00000000E+00
  0.00000000E+00  0.00000000E+00  0.00000000E+00
  0.00000000E+00  0.00000000E+00  0.00000000E+00
  0.00000000E+00  0.00000000E+00  0.00000000E+00
  0.00000000E+00  0.00000000E+00  0.00000000E+00
  0.00000000E+00  0.00000000E+00  0.00000000E+00
  0.00000000E+00  0.00000000E+00  0.00000000E+00
  0.00000000E+00  0.00000000E+00  0.00000000E+00
  0.00000000E+00  0.00000000E+00  0.00000000E+00
  0.00000000E+00  0.00000000E+00  0.00000000E+00
  0.00000000E+00  0.00000000E+00  0.00000000E+00
