9n                                      
   1.00000000000000     
    11.6672250000000002    0.0000000000000000    0.0000000000000000
    -5.8336125000000001   10.1041132500000010    0.0000000000000000
     0.0000002500000000    0.0000002500000000   26.1140000000000008
   Ce   H    O 
    36     1    71
Selective dynamics
Direct
  0.2434788663364102  0.4640356463784556  0.0304000000000002   F   F   F
  0.2434788663364102  0.7973689797117843  0.0304000000000002   F   F   F
  0.5768121996697460  0.7973689797117843  0.0304000000000002   F   F   F
  0.5768121996697460  0.4640356463784556  0.0304000000000002   F   F   F
  0.9101455330030814  0.4640356463784556  0.0304000000000002   F   F   F
  0.9101455330030815  0.7973689797117843  0.0304000000000002   F   F   F
  0.2434788663364107  0.1307023130451199  0.0304000000000002   F   F   F
  0.5768121996697460  0.1307023130451199  0.0304000000000002   F   F   F
  0.9101455330031029  0.1307023130451199  0.0304000000000002   F   F   F
  0.0212522119995169  0.6862623220711511  0.1520000000000010   F   F   F
  0.0212522119995313  0.3529289887378155  0.1520000000000010   F   F   F
  0.3545855453328599  0.3529289887378155  0.1520000000000010   F   F   F
  0.3545855453328599  0.6862623220711511  0.1520000000000010   F   F   F
  0.6879188786661882  0.6862623220711511  0.1520000000000010   F   F   F
  0.6879188786661884  0.3529289887378155  0.1520000000000010   F   F   F
  0.0212522119995313  0.0195956554044940  0.1520000000000010   F   F   F
  0.3545855453328599  0.0195956554044940  0.1520000000000010   F   F   F
  0.6879188786661877  0.0195956554044940  0.1520000000000010   F   F   F
  0.4656498874883557  0.2431236294128922  0.2739233644408110   T   T   T
  0.1316701951568974  0.5754209961548330  0.2723135339166304   T   T   T
  0.4651454383966157  0.5737011932752326  0.2746260514148533   T   T   T
  0.7993911058507930  0.5750789590439206  0.2715330222092470   T   T   T
  0.8000249532343484  0.9085122662259184  0.2731926949943974   T   T   T
  0.1325679668384280  0.9086975997124842  0.2721822381262446   T   T   T
  0.4652855654072021  0.9088510684395618  0.2729324449560839   T   T   T
  0.7990897172386725  0.2428636123242055  0.2720963007282871   T   T   T
  0.1330529318708286  0.2421248284090820  0.2742719186536509   T   T   T
  0.2419584507283108  0.1161976308544099  0.3929463026606365   T   T   T
  0.2468984906707660  0.7999967240650270  0.3942765010131464   T   T   T
  0.5782961169509131  0.7992343486593224  0.3938361438756573   T   T   T
  0.2340490761129940  0.4748411519375724  0.3935246090076027   T   T   T
  0.5958293368512623  0.4736157837809661  0.3933477093793443   T   T   T
  0.9075689686712448  0.7896526154344127  0.3929928647250068   T   T   T
  0.5778190583337371  0.1306182425537224  0.3936877656024494   T   T   T
  0.9057750044513385  0.1368358078728159  0.3926228168577719   T   T   T
  0.9084513771803174  0.4621293107700811  0.3941388393613065   T   T   T
  0.9992389213502133  0.9998786007954715  0.4776102243250284   T   T   T
  0.1323588632539552  0.9084889774552921  0.0000000000000000   F   F   F
  0.1323588632539554  0.2418223107886206  0.0000000000000000   F   F   F
  0.7990255299206267  0.5751556441219563  0.0000000000000000   F   F   F
  0.4656921965872911  0.5751556441219563  0.0000000000000000   F   F   F
  0.4656921965872911  0.9084889774552921  0.0000000000000000   F   F   F
  0.7990255299206266  0.9084889774552921  0.0000000000000000   F   F   F
  0.4656921965872911  0.2418223107886206  0.0000000000000000   F   F   F
  0.7990255299206410  0.2418223107886206  0.0000000000000000   F   F   F
  0.1323588632539554  0.5751556441219563  0.0000000000000000   F   F   F
  0.0212522027521800  0.3529289819682901  0.0608000000000004   F   F   F
  0.0212522027521874  0.6862623153016401  0.0608000000000004   F   F   F
  0.6879188694188514  0.3529289819682901  0.0608000000000004   F   F   F
  0.3545855360855300  0.3529289819682901  0.0608000000000004   F   F   F
  0.3545855360855228  0.6862623153016401  0.0608000000000004   F   F   F
  0.6879188694188657  0.6862623153016401  0.0608000000000004   F   F   F
  0.0212522027521871  0.0195956486349616  0.0608000000000004   F   F   F
  0.3545855360855228  0.0195956486349616  0.0608000000000004   F   F   F
  0.6879188694188506  0.0195956486349616  0.0608000000000004   F   F   F
  0.9101455422504260  0.7973689864812813  0.1216000000000008   F   F   F
  0.9101455422504262  0.4640356531479597  0.1216000000000008   F   F   F
  0.5768122089170973  0.4640356531479597  0.1216000000000008   F   F   F
  0.5768122089170831  0.1307023198146382  0.1216000000000008   F   F   F
  0.9101455422504205  0.1307023198146382  0.1216000000000008   F   F   F
  0.2434788755837474  0.1307023198146382  0.1216000000000008   F   F   F
  0.2434788755837477  0.7973689864812813  0.1216000000000008   F   F   F
  0.2434788755837545  0.4640356531479597  0.1216000000000008   F   F   F
  0.5768122089170832  0.7973689864812813  0.1216000000000008   F   F   F
  0.1323588817486441  0.5751556576610077  0.1824000000000012   F   F   F
  0.1323588817486300  0.9084889909943286  0.1824000000000012   F   F   F
  0.4656922150819797  0.5751556576610077  0.1824000000000012   F   F   F
  0.7990255484153231  0.5751556576610077  0.1824000000000012   F   F   F
  0.7990255484153151  0.9084889909943286  0.1824000000000012   F   F   F
  0.4656922150819653  0.9084889909943286  0.1824000000000012   F   F   F
  0.1323588817486369  0.2418223243276644  0.1824000000000012   F   F   F
  0.7990255484153228  0.2418223243276644  0.1824000000000012   F   F   F
  0.4656922150819797  0.2418223243276644  0.1824000000000012   F   F   F
  0.0211692461472726  0.3528729353586265  0.2422564738819599   T   T   T
  0.3545191420289194  0.3535534457215774  0.2436489335758409   T   T   T
  0.6877551586280211  0.3525256707703316  0.2420401717320640   T   T   T
  0.6876193225399663  0.6871081243956370  0.2424527866342134   T   T   T
  0.0218291850435301  0.6866711176826602  0.2421482099967980   T   T   T
  0.3555829595292369  0.6868785158896429  0.2431167556101923   T   T   T
  0.6872525799535537  0.0189637715508065  0.2434933882393049   T   T   T
  0.3552310805602941  0.0197548871843854  0.2423966116410222   T   T   T
  0.0209884268473309  0.0196505261494980  0.2427173727339283   T   T   T
  0.2441632280155235  0.7996479067464829  0.3037021910638889   T   T   T
  0.5777835658009268  0.7937543144513763  0.3055287549911631   T   T   T
  0.2437687936604646  0.1292369075154695  0.3020436397035106   T   T   T
  0.5800553313664937  0.4658344480305259  0.3019489037380491   T   T   T
  0.9091728091179229  0.7963507353666399  0.3027931791179518   T   T   T
  0.9138949716206095  0.1344316132544852  0.3035250243707068   T   T   T
  0.5744166253253010  0.1340489769957264  0.3042648687651615   T   T   T
  0.9094990144330997  0.4627765684830384  0.3027334352255313   T   T   T
  0.2402787823294795  0.4635659596756725  0.3029134548037399   T   T   T
  0.1262246872248261  0.9054346019913958  0.3632996865314203   T   T   T
  0.8094965088583730  0.9170243764355975  0.3629311098790947   T   T   T
  0.4632082588475663  0.2460195710230123  0.3676557052190132   T   T   T
  0.8055738474052712  0.5774333717762055  0.3617303027563196   T   T   T
  0.1280168010262723  0.5799212520854936  0.3626184199981869   T   T   T
  0.4623448560409502  0.5683855538567730  0.3678587440015511   T   T   T
  0.4708562446933194  0.9113411186036023  0.3609831290524803   T   T   T
  0.7970964404190006  0.2386777426109424  0.3605651852281784   T   T   T
  0.1321054477812401  0.2371156233132104  0.3691084057453165   T   T   T
  0.0035829953070595  0.3474093236336454  0.4261413862031857   T   T   T
  0.3602856535263379  0.7031754912304318  0.4254742133832863   T   T   T
  0.0183455288398265  0.6878248126749119  0.4257307585729182   T   T   T
  0.7013881221570327  0.7026224271818798  0.4255111335796697   T   T   T
  0.6995287330894855  0.3478373074922923  0.4255836397648879   T   T   T
  0.6893362487274592  0.0208611557237717  0.4239030724017129   T   T   T
  0.3607889577338714  0.0096153819894298  0.4259717721214724   T   T   T
  0.0116349051911165  0.0106371923539871  0.4407026589161841   T   T   T
 
  0.00000000E+00  0.00000000E+00  0.00000000E+00
  0.00000000E+00  0.00000000E+00  0.00000000E+00
  0.00000000E+00  0.00000000E+00  0.00000000E+00
  0.00000000E+00  0.00000000E+00  0.00000000E+00
  0.00000000E+00  0.00000000E+00  0.00000000E+00
  0.00000000E+00  0.00000000E+00  0.00000000E+00
  0.00000000E+00  0.00000000E+00  0.00000000E+00
  0.00000000E+00  0.00000000E+00  0.00000000E+00
  0.00000000E+00  0.00000000E+00  0.00000000E+00
  0.00000000E+00  0.00000000E+00  0.00000000E+00
  0.00000000E+00  0.00000000E+00  0.00000000E+00
  0.00000000E+00  0.00000000E+00  0.00000000E+00
  0.00000000E+00  0.00000000E+00  0.00000000E+00
  0.00000000E+00  0.00000000E+00  0.00000000E+00
  0.00000000E+00  0.00000000E+00  0.00000000E+00
  0.00000000E+00  0.00000000E+00  0.00000000E+00
  0.00000000E+00  0.00000000E+00  0.00000000E+00
  0.00000000E+00  0.00000000E+00  0.00000000E+00
  0.00000000E+00  0.00000000E+00  0.00000000E+00
  0.00000000E+00  0.00000000E+00  0.00000000E+00
  0.00000000E+00  0.00000000E+00  0.00000000E+00
  0.00000000E+00  0.00000000E+00  0.00000000E+00
  0.00000000E+00  0.00000000E+00  0.00000000E+00
  0.00000000E+00  0.00000000E+00  0.00000000E+00
  0.00000000E+00  0.00000000E+00  0.00000000E+00
  0.00000000E+00  0.00000000E+00  0.00000000E+00
  0.00000000E+00  0.00000000E+00  0.00000000E+00
  0.00000000E+00  0.00000000E+00  0.00000000E+00
  0.00000000E+00  0.00000000E+00  0.00000000E+00
  0.00000000E+00  0.00000000E+00  0.00000000E+00
  0.00000000E+00  0.00000000E+00  0.00000000E+00
  0.00000000E+00  0.00000000E+00  0.00000000E+00
  0.00000000E+00  0.00000000E+00  0.00000000E+00
  0.00000000E+00  0.00000000E+00  0.00000000E+00
  0.00000000E+00  0.00000000E+00  0.00000000E+00
  0.00000000E+00  0.00000000E+00  0.00000000E+00
  0.00000000E+00  0.00000000E+00  0.00000000E+00
  0.00000000E+00  0.00000000E+00  0.00000000E+00
  0.00000000E+00  0.00000000E+00  0.00000000E+00
  0.00000000E+00  0.00000000E+00  0.00000000E+00
  0.00000000E+00  0.00000000E+00  0.00000000E+00
  0.00000000E+00  0.00000000E+00  0.00000000E+00
  0.00000000E+00  0.00000000E+00  0.00000000E+00
  0.00000000E+00  0.00000000E+00  0.00000000E+00
  0.00000000E+00  0.00000000E+00  0.00000000E+00
  0.00000000E+00  0.00000000E+00  0.00000000E+00
  0.00000000E+00  0.00000000E+00  0.00000000E+00
  0.00000000E+00  0.00000000E+00  0.00000000E+00
  0.00000000E+00  0.00000000E+00  0.00000000E+00
  0.00000000E+00  0.00000000E+00  0.00000000E+00
  0.00000000E+00  0.00000000E+00  0.00000000E+00
  0.00000000E+00  0.00000000E+00  0.00000000E+00
  0.00000000E+00  0.00000000E+00  0.00000000E+00
  0.00000000E+00  0.00000000E+00  0.00000000E+00
  0.00000000E+00  0.00000000E+00  0.00000000E+00
  0.00000000E+00  0.00000000E+00  0.00000000E+00
  0.00000000E+00  0.00000000E+00  0.00000000E+00
  0.00000000E+00  0.00000000E+00  0.00000000E+00
  0.00000000E+00  0.00000000E+00  0.00000000E+00
  0.00000000E+00  0.00000000E+00  0.00000000E+00
  0.00000000E+00  0.00000000E+00  0.00000000E+00
  0.00000000E+00  0.00000000E+00  0.00000000E+00
  0.00000000E+00  0.00000000E+00  0.00000000E+00
  0.00000000E+00  0.00000000E+00  0.00000000E+00
  0.00000000E+00  0.00000000E+00  0.00000000E+00
  0.00000000E+00  0.00000000E+00  0.00000000E+00
  0.00000000E+00  0.00000000E+00  0.00000000E+00
  0.00000000E+00  0.00000000E+00  0.00000000E+00
  0.00000000E+00  0.00000000E+00  0.00000000E+00
  0.00000000E+00  0.00000000E+00  0.00000000E+00
  0.00000000E+00  0.00000000E+00  0.00000000E+00
  0.00000000E+00  0.00000000E+00  0.00000000E+00
  0.00000000E+00  0.00000000E+00  0.00000000E+00
  0.00000000E+00  0.00000000E+00  0.00000000E+00
  0.00000000E+00  0.00000000E+00  0.00000000E+00
  0.00000000E+00  0.00000000E+00  0.00000000E+00
  0.00000000E+00  0.00000000E+00  0.00000000E+00
  0.00000000E+00  0.00000000E+00  0.00000000E+00
  0.00000000E+00  0.00000000E+00  0.00000000E+00
  0.00000000E+00  0.00000000E+00  0.00000000E+00
  0.00000000E+00  0.00000000E+00  0.00000000E+00
  0.00000000E+00  0.00000000E+00  0.00000000E+00
  0.00000000E+00  0.00000000E+00  0.00000000E+00
  0.00000000E+00  0.00000000E+00  0.00000000E+00
  0.00000000E+00  0.00000000E+00  0.00000000E+00
  0.00000000E+00  0.00000000E+00  0.00000000E+00
  0.00000000E+00  0.00000000E+00  0.00000000E+00
  0.00000000E+00  0.00000000E+00  0.00000000E+00
  0.00000000E+00  0.00000000E+00  0.00000000E+00
  0.00000000E+00  0.00000000E+00  0.00000000E+00
  0.00000000E+00  0.00000000E+00  0.00000000E+00
  0.00000000E+00  0.00000000E+00  0.00000000E+00
  0.00000000E+00  0.00000000E+00  0.00000000E+00
  0.00000000E+00  0.00000000E+00  0.00000000E+00
  0.00000000E+00  0.00000000E+00  0.00000000E+00
  0.00000000E+00  0.00000000E+00  0.00000000E+00
  0.00000000E+00  0.00000000E+00  0.00000000E+00
  0.00000000E+00  0.00000000E+00  0.00000000E+00
  0.00000000E+00  0.00000000E+00  0.00000000E+00
  0.00000000E+00  0.00000000E+00  0.00000000E+00
  0.00000000E+00  0.00000000E+00  0.00000000E+00
  0.00000000E+00  0.00000000E+00  0.00000000E+00
  0.00000000E+00  0.00000000E+00  0.00000000E+00
  0.00000000E+00  0.00000000E+00  0.00000000E+00
  0.00000000E+00  0.00000000E+00  0.00000000E+00
  0.00000000E+00  0.00000000E+00  0.00000000E+00
  0.00000000E+00  0.00000000E+00  0.00000000E+00
  0.00000000E+00  0.00000000E+00  0.00000000E+00
