4_0                                     
   1.00000000000000     
     7.7781000000000002    0.0000000000000000    0.0000000000000000
    -3.8890500000000001    6.7360319999999998    0.0000000000000000
     0.0000010000000000    0.0000010000000000   26.1140000000000008
   Ce   H    O 
    16     1    31
Selective dynamics
Direct
  0.3333400000000211  0.6666600000000003  0.0304000000000002   F   F   F
  0.3333399999999997  0.1666600000000003  0.0304000000000002   F   F   F
  0.8333399999999997  0.1666600000000003  0.0304000000000002   F   F   F
  0.8333399999999997  0.6666600000000003  0.0304000000000002   F   F   F
  0.0000000000000000  0.0000000000000000  0.1520000000000010   F   F   F
  0.0000000000000000  0.5000000000000000  0.1520000000000010   F   F   F
  0.5000000000000000  0.5000000000000000  0.1520000000000010   F   F   F
  0.5000000000000000  0.0000000000000000  0.1520000000000010   F   F   F
  0.1660022000194274  0.8341882555285380  0.2726364025479029   T   T   T
  0.6671306002426860  0.8332044062945201  0.2744011416246650   T   T   T
  0.1669565971664397  0.3330599022781016  0.2744322414841633   T   T   T
  0.6669411520849877  0.3332833307473919  0.2709445051356099   T   T   T
  0.8329103148322616  0.6521187520257499  0.3925623543572598   T   T   T
  0.3255570219115214  0.6746771956026478  0.3960023623088418   T   T   T
  0.8244812968619044  0.1748537660645368  0.3939520447024307   T   T   T
  0.3478595810081870  0.1674813385472262  0.3924573010696335   T   T   T
  0.4943624309387218  0.5059334332257635  0.4807524318619514   T   T   T
  0.6666600000000003  0.8333399999999997  0.0000000000000000   F   F   F
  0.6666600000000003  0.3333399999999997  0.0000000000000000   F   F   F
  0.1666600000000003  0.3333399999999997  0.0000000000000000   F   F   F
  0.1666600000000003  0.8333399999999997  0.0000000000000000   F   F   F
  0.5000000000000000  0.0000000000000000  0.0608000000000004   F   F   F
  0.0000000000000000  0.0000000000000000  0.0608000000000004   F   F   F
  0.0000000000000000  0.5000000000000000  0.0608000000000004   F   F   F
  0.5000000000000000  0.5000000000000000  0.0608000000000004   F   F   F
  0.8333399999999926  0.1666600000000003  0.1216000000000008   F   F   F
  0.3333399999999997  0.1666600000000003  0.1216000000000008   F   F   F
  0.3333399999999997  0.6666600000000003  0.1216000000000008   F   F   F
  0.8333399999999997  0.6666600000000003  0.1216000000000008   F   F   F
  0.1666600000000003  0.3333399999999997  0.1824000000000012   F   F   F
  0.6666600000000003  0.3333399999999997  0.1824000000000012   F   F   F
  0.6666600000000003  0.8333399999999997  0.1824000000000012   F   F   F
  0.1666600000000003  0.8333399999999997  0.1824000000000012   F   F   F
  0.4997532942273750  0.9965531907690064  0.2422561387114257   T   T   T
  0.9990314502234980  0.0009841119965799  0.2432533781289479   T   T   T
  0.0034982571507527  0.5004654142375173  0.2422778181920719   T   T   T
  0.4975528535730760  0.5028069116611036  0.2428444399827612   T   T   T
  0.3377500305278502  0.1677358024976741  0.3006790656469036   T   T   T
  0.8324411988628810  0.6625836542657098  0.3007690840979862   T   T   T
  0.3312032051670570  0.6691332758046258  0.3064900072762384   T   T   T
  0.8314688606988270  0.1682176331725529  0.3028135805441110   T   T   T
  0.6728490875397881  0.8295825423664169  0.3671080816875048   T   T   T
  0.1591212814009140  0.8410692988916466  0.3646092667439191   T   T   T
  0.1703723892048927  0.3268496993146215  0.3667621069044813   T   T   T
  0.6643813619995314  0.3361516229057102  0.3632772756453519   T   T   T
  0.4866842134428708  0.9793404827600014  0.4296755157024919   T   T   T
  0.0215020738048040  0.5129958249201607  0.4296574926358971   T   T   T
  0.4969288564095962  0.5036754923844242  0.4435465573651314   T   T   T
 
  0.00000000E+00  0.00000000E+00  0.00000000E+00
  0.00000000E+00  0.00000000E+00  0.00000000E+00
  0.00000000E+00  0.00000000E+00  0.00000000E+00
  0.00000000E+00  0.00000000E+00  0.00000000E+00
  0.00000000E+00  0.00000000E+00  0.00000000E+00
  0.00000000E+00  0.00000000E+00  0.00000000E+00
  0.00000000E+00  0.00000000E+00  0.00000000E+00
  0.00000000E+00  0.00000000E+00  0.00000000E+00
  0.00000000E+00  0.00000000E+00  0.00000000E+00
  0.00000000E+00  0.00000000E+00  0.00000000E+00
  0.00000000E+00  0.00000000E+00  0.00000000E+00
  0.00000000E+00  0.00000000E+00  0.00000000E+00
  0.00000000E+00  0.00000000E+00  0.00000000E+00
  0.00000000E+00  0.00000000E+00  0.00000000E+00
  0.00000000E+00  0.00000000E+00  0.00000000E+00
  0.00000000E+00  0.00000000E+00  0.00000000E+00
  0.00000000E+00  0.00000000E+00  0.00000000E+00
  0.00000000E+00  0.00000000E+00  0.00000000E+00
  0.00000000E+00  0.00000000E+00  0.00000000E+00
  0.00000000E+00  0.00000000E+00  0.00000000E+00
  0.00000000E+00  0.00000000E+00  0.00000000E+00
  0.00000000E+00  0.00000000E+00  0.00000000E+00
  0.00000000E+00  0.00000000E+00  0.00000000E+00
  0.00000000E+00  0.00000000E+00  0.00000000E+00
  0.00000000E+00  0.00000000E+00  0.00000000E+00
  0.00000000E+00  0.00000000E+00  0.00000000E+00
  0.00000000E+00  0.00000000E+00  0.00000000E+00
  0.00000000E+00  0.00000000E+00  0.00000000E+00
  0.00000000E+00  0.00000000E+00  0.00000000E+00
  0.00000000E+00  0.00000000E+00  0.00000000E+00
  0.00000000E+00  0.00000000E+00  0.00000000E+00
  0.00000000E+00  0.00000000E+00  0.00000000E+00
  0.00000000E+00  0.00000000E+00  0.00000000E+00
  0.00000000E+00  0.00000000E+00  0.00000000E+00
  0.00000000E+00  0.00000000E+00  0.00000000E+00
  0.00000000E+00  0.00000000E+00  0.00000000E+00
  0.00000000E+00  0.00000000E+00  0.00000000E+00
  0.00000000E+00  0.00000000E+00  0.00000000E+00
  0.00000000E+00  0.00000000E+00  0.00000000E+00
  0.00000000E+00  0.00000000E+00  0.00000000E+00
  0.00000000E+00  0.00000000E+00  0.00000000E+00
  0.00000000E+00  0.00000000E+00  0.00000000E+00
  0.00000000E+00  0.00000000E+00  0.00000000E+00
  0.00000000E+00  0.00000000E+00  0.00000000E+00
  0.00000000E+00  0.00000000E+00  0.00000000E+00
  0.00000000E+00  0.00000000E+00  0.00000000E+00
  0.00000000E+00  0.00000000E+00  0.00000000E+00
  0.00000000E+00  0.00000000E+00  0.00000000E+00
