cot4n                                   
   1.00000000000000     
     7.7782000000000000    0.0000000000000000    0.0000000000000000
    -3.8890500000000001    6.7360319999999998    0.0000000000000000
     0.0000010000000000    0.0000010000000000   26.1140000000000008
   C    Ce   H    O 
     1    16     1    33
Selective dynamics
Direct
  0.9478178787441685  0.0978183957943882  0.4800756934583000   T   T   T
  1.3333400000000493  0.6666600000000003  0.0304000000000002   F   F   F
  1.3333400000000004  0.1666600000000003  0.0304000000000002   F   F   F
  0.8333399999999997  0.1666600000000003  0.0304000000000002   F   F   F
  0.8333399999999896 -0.3333400000000172  0.0304000000000002   F   F   F
  1.0000000000000000  0.0000000000000000  0.1520000000000010   F   F   F
  1.0000000000000002  0.5000000000000000  0.1520000000000010   F   F   F
  1.5000000000000000  0.5000000000000000  0.1520000000000010   F   F   F
  0.4999999999999999  0.0000000000000000  0.1520000000000010   F   F   F
  0.6657640620887099  0.3328213005749821  0.2731219980461199   T   T   T
  1.1676586027026503 -0.1645158018508273  0.2722332706045218   T   T   T
  1.1668307230325070  0.3329285548276534  0.2741159527467710   T   T   T
  0.6669362042585121 -0.1674812652682656  0.2735497083734852   T   T   T
  0.8428540992504050 -0.3352356804620760  0.3922636057596309   T   T   T
  0.8289241041033716  0.1683737001163412  0.3954063977159834   T   T   T
  1.3351735863488128  0.1617450890388959  0.3959989359279257   T   T   T
  1.3278827876946022  0.6721445884777918  0.3928816290304388   T   T   T
  1.5105483024774546  0.5231105381221109  0.4765980809718552   T   T   T
  0.6666599999999976 -0.1666600000000003  0.0000000000000000   F   F   F
  0.6666600000000005  0.3333399999999999  0.0000000000000000   F   F   F
  1.1666600000000003  0.3333399999999999  0.0000000000000000   F   F   F
  1.1666600000000003 -0.1666600000000003  0.0000000000000000   F   F   F
  0.4999999999999999  0.0000000000000000  0.0608000000000004   F   F   F
  0.9999999999999999  0.0000000000000000  0.0608000000000004   F   F   F
  1.0000000000000009  0.5000000000000000  0.0608000000000004   F   F   F
  1.5000000000000000  0.5000000000000000  0.0608000000000004   F   F   F
  0.8333399999999997  0.1666600000000003  0.1216000000000008   F   F   F
  1.3333400000000004  0.1666600000000003  0.1216000000000008   F   F   F
  1.3333400000003621  0.6666599999999934  0.1216000000000008   F   F   F
  0.8333399999999999 -0.3333399999999427  0.1216000000000008   F   F   F
  1.1666600000000003  0.3333399999999999  0.1824000000000012   F   F   F
  0.6666600000000005  0.3333399999999999  0.1824000000000012   F   F   F
  0.6666600000000003 -0.1666600000000003  0.1824000000000012   F   F   F
  1.1666600000000003 -0.1666600000000003  0.1824000000000012   F   F   F
  0.5015680320210320 -0.0001558212866773  0.2426464408551799   T   T   T
  1.0004937949544310  0.4977274834649051  0.2429137949813610   T   T   T
  1.4993259138614141  0.5014336526965441  0.2432730167048410   T   T   T
  0.9987144044990562  0.0015053572544126  0.2431132718738402   T   T   T
  1.3344979887173454  0.1672658927130299  0.3023818406699178   T   T   T
  0.8362606257478059 -0.3343969638335361  0.3024816321270110   T   T   T
  0.8302346632569796  0.1651904801348797  0.3056591413737215   T   T   T
  1.3326129465135235  0.6691811841199609  0.3043457571834415   T   T   T
  0.6695656771312865  0.3434719701396599  0.3650649316449949   T   T   T
  1.1618496183569265 -0.1677842190617451  0.3626242317469895   T   T   T
  0.6662007588792943 -0.1815738020361652  0.3634621931581771   T   T   T
  1.1690320676416195  0.3389162116895055  0.3656851993540371   T   T   T
  1.0041613444325153  0.5115741542030359  0.4242158354691233   T   T   T
  0.5048288540376971 -0.0143734132691352  0.4235036507998691   T   T   T
  0.9862531867913575 -0.0192693575917740  0.4328655475601685   T   T   T
  1.5066135060493426  0.5128529003786860  0.4393838087538605   T   T   T
  1.0048105638330436  0.0825796372973846  0.5210684164255481   T   T   T
 
  0.00000000E+00  0.00000000E+00  0.00000000E+00
  0.00000000E+00  0.00000000E+00  0.00000000E+00
  0.00000000E+00  0.00000000E+00  0.00000000E+00
  0.00000000E+00  0.00000000E+00  0.00000000E+00
  0.00000000E+00  0.00000000E+00  0.00000000E+00
  0.00000000E+00  0.00000000E+00  0.00000000E+00
  0.00000000E+00  0.00000000E+00  0.00000000E+00
  0.00000000E+00  0.00000000E+00  0.00000000E+00
  0.00000000E+00  0.00000000E+00  0.00000000E+00
  0.00000000E+00  0.00000000E+00  0.00000000E+00
  0.00000000E+00  0.00000000E+00  0.00000000E+00
  0.00000000E+00  0.00000000E+00  0.00000000E+00
  0.00000000E+00  0.00000000E+00  0.00000000E+00
  0.00000000E+00  0.00000000E+00  0.00000000E+00
  0.00000000E+00  0.00000000E+00  0.00000000E+00
  0.00000000E+00  0.00000000E+00  0.00000000E+00
  0.00000000E+00  0.00000000E+00  0.00000000E+00
  0.00000000E+00  0.00000000E+00  0.00000000E+00
  0.00000000E+00  0.00000000E+00  0.00000000E+00
  0.00000000E+00  0.00000000E+00  0.00000000E+00
  0.00000000E+00  0.00000000E+00  0.00000000E+00
  0.00000000E+00  0.00000000E+00  0.00000000E+00
  0.00000000E+00  0.00000000E+00  0.00000000E+00
  0.00000000E+00  0.00000000E+00  0.00000000E+00
  0.00000000E+00  0.00000000E+00  0.00000000E+00
  0.00000000E+00  0.00000000E+00  0.00000000E+00
  0.00000000E+00  0.00000000E+00  0.00000000E+00
  0.00000000E+00  0.00000000E+00  0.00000000E+00
  0.00000000E+00  0.00000000E+00  0.00000000E+00
  0.00000000E+00  0.00000000E+00  0.00000000E+00
  0.00000000E+00  0.00000000E+00  0.00000000E+00
  0.00000000E+00  0.00000000E+00  0.00000000E+00
  0.00000000E+00  0.00000000E+00  0.00000000E+00
  0.00000000E+00  0.00000000E+00  0.00000000E+00
  0.00000000E+00  0.00000000E+00  0.00000000E+00
  0.00000000E+00  0.00000000E+00  0.00000000E+00
  0.00000000E+00  0.00000000E+00  0.00000000E+00
  0.00000000E+00  0.00000000E+00  0.00000000E+00
  0.00000000E+00  0.00000000E+00  0.00000000E+00
  0.00000000E+00  0.00000000E+00  0.00000000E+00
  0.00000000E+00  0.00000000E+00  0.00000000E+00
  0.00000000E+00  0.00000000E+00  0.00000000E+00
  0.00000000E+00  0.00000000E+00  0.00000000E+00
  0.00000000E+00  0.00000000E+00  0.00000000E+00
  0.00000000E+00  0.00000000E+00  0.00000000E+00
  0.00000000E+00  0.00000000E+00  0.00000000E+00
  0.00000000E+00  0.00000000E+00  0.00000000E+00
  0.00000000E+00  0.00000000E+00  0.00000000E+00
  0.00000000E+00  0.00000000E+00  0.00000000E+00
  0.00000000E+00  0.00000000E+00  0.00000000E+00
  0.00000000E+00  0.00000000E+00  0.00000000E+00
