3n                                      
   1.00000000000000     
     6.7360755000000001    0.0000000000000000    0.0000000000000000
     3.3680377500000001    5.8336125000000001    0.0000000000000000
     0.0000002500000000    0.0000002500000000   26.1140000000000008
   C    Ce   H    O 
     1    12     1    25
Selective dynamics
Direct
  0.5807563531187113  0.0789940695833741  0.5086447235181869   T   T   T
  0.6420118484590989  0.0009469571202345  0.0304000000000006   F   F   F
  0.9753451817924342  0.3342802904535631  0.0304000000000006   F   F   F
  0.3086785151257631  0.6676136237869120  0.0304000000000006   F   F   F
  0.3086918541813881  0.3342669727537637  0.1520000000000030   F   F   F
  0.9753585208480452  0.0009336394204240  0.1520000000000030   F   F   F
  0.6420251875147177  0.6676003060870884  0.1520000000000030   F   F   F
  0.6433669679766789  0.3304407376988701  0.2727192274690449   T   T   T
  0.9736467304239700  0.6695699502071154  0.2726538875111999   T   T   T
  0.3102708670765542  0.0001022923521459  0.2729752823517039   T   T   T
  0.9740196605156760  0.3494311713015579  0.3919426024054454   T   T   T
  0.3247342069237175  0.6494566535647566  0.3918317059134129   T   T   T
  0.6286455605936944  0.9987300893559404  0.3959069505904609   T   T   T
  1.0006283410983621  0.9950341137954755  0.4760149422480607   T   T   T
  0.3087051803618976  0.0009202865451528  0.0000000000000000   F   F   F
  0.6420385136952246  0.3342536198784924  0.0000000000000000   F   F   F
  0.9753718470285573  0.6675869532118320  0.0000000000000000   F   F   F
  0.3086918498896664  0.3342669610286290  0.0608000000000012   F   F   F
  0.9753585165563482  0.0009336276952681  0.0608000000000012   F   F   F
  0.6420251832230193  0.6676002943619395  0.0608000000000012   F   F   F
  0.3086785194174299  0.6676136355121337  0.1216000000000024   F   F   F
  0.6420118527507876  0.0009469688454047  0.1216000000000024   F   F   F
  0.9753451860840793  0.3342803021787548  0.1216000000000024   F   F   F
  0.6420385222786322  0.3342536433288004  0.1824000000000036   F   F   F
  0.9753718556119639  0.6675869766621368  0.1824000000000036   F   F   F
  0.3087051889453039  0.0009203099954647  0.1824000000000036   F   F   F
  0.3076519435710719  0.3350346345446153  0.2421994245818641   T   T   T
  0.6424220640132526  0.6653766231826972  0.2420630508993720   T   T   T
  0.9770245217595639  1.0002783712835934  0.2431271214333374   T   T   T
  0.9757463795424710  0.3404443423072614  0.3033777664171685   T   T   T
  0.3173056763460295  0.6598725099848847  0.3033861002266492   T   T   T
  0.6357503872476897 -0.0009148908450812  0.3019195333783516   T   T   T
  0.9822500860631259  0.6737466240627762  0.3629209163673379   T   T   T
  0.6559974980475556  0.3232408853874407  0.3630493798151690   T   T   T
  0.2877135548530644  0.0009445685043367  0.3640205792326844   T   T   T
  0.2878054906304556  0.3554180286380115  0.4261599019652508   T   T   T
  0.6434227664146415  0.6442429408255222  0.4251455733639901   T   T   T
  0.9965472783646784  0.9982058464810647  0.4388268576350050   T   T   T
  0.5393325833762108  0.1542922853871627  0.5490582394482081   T   T   T
 
  0.00000000E+00  0.00000000E+00  0.00000000E+00
  0.00000000E+00  0.00000000E+00  0.00000000E+00
  0.00000000E+00  0.00000000E+00  0.00000000E+00
  0.00000000E+00  0.00000000E+00  0.00000000E+00
  0.00000000E+00  0.00000000E+00  0.00000000E+00
  0.00000000E+00  0.00000000E+00  0.00000000E+00
  0.00000000E+00  0.00000000E+00  0.00000000E+00
  0.00000000E+00  0.00000000E+00  0.00000000E+00
  0.00000000E+00  0.00000000E+00  0.00000000E+00
  0.00000000E+00  0.00000000E+00  0.00000000E+00
  0.00000000E+00  0.00000000E+00  0.00000000E+00
  0.00000000E+00  0.00000000E+00  0.00000000E+00
  0.00000000E+00  0.00000000E+00  0.00000000E+00
  0.00000000E+00  0.00000000E+00  0.00000000E+00
  0.00000000E+00  0.00000000E+00  0.00000000E+00
  0.00000000E+00  0.00000000E+00  0.00000000E+00
  0.00000000E+00  0.00000000E+00  0.00000000E+00
  0.00000000E+00  0.00000000E+00  0.00000000E+00
  0.00000000E+00  0.00000000E+00  0.00000000E+00
  0.00000000E+00  0.00000000E+00  0.00000000E+00
  0.00000000E+00  0.00000000E+00  0.00000000E+00
  0.00000000E+00  0.00000000E+00  0.00000000E+00
  0.00000000E+00  0.00000000E+00  0.00000000E+00
  0.00000000E+00  0.00000000E+00  0.00000000E+00
  0.00000000E+00  0.00000000E+00  0.00000000E+00
  0.00000000E+00  0.00000000E+00  0.00000000E+00
  0.00000000E+00  0.00000000E+00  0.00000000E+00
  0.00000000E+00  0.00000000E+00  0.00000000E+00
  0.00000000E+00  0.00000000E+00  0.00000000E+00
  0.00000000E+00  0.00000000E+00  0.00000000E+00
  0.00000000E+00  0.00000000E+00  0.00000000E+00
  0.00000000E+00  0.00000000E+00  0.00000000E+00
  0.00000000E+00  0.00000000E+00  0.00000000E+00
  0.00000000E+00  0.00000000E+00  0.00000000E+00
  0.00000000E+00  0.00000000E+00  0.00000000E+00
  0.00000000E+00  0.00000000E+00  0.00000000E+00
  0.00000000E+00  0.00000000E+00  0.00000000E+00
  0.00000000E+00  0.00000000E+00  0.00000000E+00
  0.00000000E+00  0.00000000E+00  0.00000000E+00
