3n                                      
   1.00000000000000     
     6.7360755000000001    0.0000000000000000    0.0000000000000000
     3.3680377500000001    5.8336125000000001    0.0000000000000000
     0.0000002500000000    0.0000002500000000   26.1140000000000008
   C    Ce   H    O 
     1    12     1    25
Selective dynamics
Direct
  0.3837976814086783  0.3477819005306759  0.5223901954083855   T   T   T
  0.0194514219349651  0.3601752703946946  0.0304000000000004   F   F   F
  0.3527847552682955  0.6935086037280273  0.0304000000000004   F   F   F
  0.6861180886016313  0.0268419370613557  0.0304000000000004   F   F   F
  0.3527980943239146  0.3601619526948831  0.1520000000000023   F   F   F
  0.6861314276572510  0.6934952860282166  0.1520000000000023   F   F   F
  0.0194647609905799  0.0268286193615526  0.1520000000000023   F   F   F
  0.0213122916848357  0.6922092935734334  0.2727342639083027   T   T   T
  0.3520836349861866  0.0288466383069188  0.2727391641536699   T   T   T
  0.6852256623678735  0.3603675796868294  0.2726829505164672   T   T   T
  0.3641732421520112  0.7136474005337937  0.3932781296811206   T   T   T
  0.7051688438680044 -0.0038591921842185  0.3928622032497497   T   T   T
 -0.0127549591854939  0.3727933222571637  0.3938485209579479   T   T   T
  1.0138750569591832  1.0163032285675109  0.4836512610317688   T   T   T
  0.3528114205044231  0.0268152664862812  0.0000000000000000   F   F   F
  0.6861447538377583  0.3601485998196173  0.0000000000000000   F   F   F
  0.0194780871710875  0.6934819331529456  0.0000000000000000   F   F   F
  0.3527980900321736  0.3601619409697538  0.0608000000000009   F   F   F
  0.6861314233655447  0.6934952743030611  0.0608000000000009   F   F   F
  0.0194647566988806  0.0268286076363964  0.0608000000000009   F   F   F
  0.3527847595599876  0.6935086154531980  0.1216000000000018   F   F   F
  0.0194514262266309  0.3601752821198622  0.1216000000000018   F   F   F
  0.6861180928932882  0.0268419487865472  0.1216000000000018   F   F   F
  0.6861447624211121  0.3601486232700245  0.1824000000000026   F   F   F
  0.3528114290878221  0.0268152899366072  0.1824000000000026   F   F   F
  0.0194780957544861  0.6934819566032723  0.1824000000000026   F   F   F
  0.6860604059353080  0.6938425632850409  0.2414163853212103   T   T   T
  0.0197189085089394  0.0272973039815435  0.2420484839011886   T   T   T
  0.3529564158149250  0.3601312931044000  0.2431993118740488   T   T   T
  0.3565339736557930  0.7014721660749581  0.3016541415343663   T   T   T
  0.6945343704783005  0.0157152112701974  0.3015965234841427   T   T   T
  0.0071544050280301  0.3651259367762495  0.3018826174876416   T   T   T
  0.0411531900797091  0.6785474566662020  0.3665391602848722   T   T   T
  0.6707272957714649  0.3544925028286657  0.3666326844980650   T   T   T
  0.3461988657420915  0.0482766505746711  0.3661905414361207   T   T   T
  0.6857374393079583  0.6947426076995407  0.4340993353974032   T   T   T
  0.0189100634305743  0.0268196494323608  0.4466549763824290   T   T   T
  0.3588177500417029  0.3632044750655663  0.4774299237669429   T   T   T
  0.4085427972380171  0.3323933494850984  0.5668266226231630   T   T   T
 
  0.00000000E+00  0.00000000E+00  0.00000000E+00
  0.00000000E+00  0.00000000E+00  0.00000000E+00
  0.00000000E+00  0.00000000E+00  0.00000000E+00
  0.00000000E+00  0.00000000E+00  0.00000000E+00
  0.00000000E+00  0.00000000E+00  0.00000000E+00
  0.00000000E+00  0.00000000E+00  0.00000000E+00
  0.00000000E+00  0.00000000E+00  0.00000000E+00
  0.00000000E+00  0.00000000E+00  0.00000000E+00
  0.00000000E+00  0.00000000E+00  0.00000000E+00
  0.00000000E+00  0.00000000E+00  0.00000000E+00
  0.00000000E+00  0.00000000E+00  0.00000000E+00
  0.00000000E+00  0.00000000E+00  0.00000000E+00
  0.00000000E+00  0.00000000E+00  0.00000000E+00
  0.00000000E+00  0.00000000E+00  0.00000000E+00
  0.00000000E+00  0.00000000E+00  0.00000000E+00
  0.00000000E+00  0.00000000E+00  0.00000000E+00
  0.00000000E+00  0.00000000E+00  0.00000000E+00
  0.00000000E+00  0.00000000E+00  0.00000000E+00
  0.00000000E+00  0.00000000E+00  0.00000000E+00
  0.00000000E+00  0.00000000E+00  0.00000000E+00
  0.00000000E+00  0.00000000E+00  0.00000000E+00
  0.00000000E+00  0.00000000E+00  0.00000000E+00
  0.00000000E+00  0.00000000E+00  0.00000000E+00
  0.00000000E+00  0.00000000E+00  0.00000000E+00
  0.00000000E+00  0.00000000E+00  0.00000000E+00
  0.00000000E+00  0.00000000E+00  0.00000000E+00
  0.00000000E+00  0.00000000E+00  0.00000000E+00
  0.00000000E+00  0.00000000E+00  0.00000000E+00
  0.00000000E+00  0.00000000E+00  0.00000000E+00
  0.00000000E+00  0.00000000E+00  0.00000000E+00
  0.00000000E+00  0.00000000E+00  0.00000000E+00
  0.00000000E+00  0.00000000E+00  0.00000000E+00
  0.00000000E+00  0.00000000E+00  0.00000000E+00
  0.00000000E+00  0.00000000E+00  0.00000000E+00
  0.00000000E+00  0.00000000E+00  0.00000000E+00
  0.00000000E+00  0.00000000E+00  0.00000000E+00
  0.00000000E+00  0.00000000E+00  0.00000000E+00
  0.00000000E+00  0.00000000E+00  0.00000000E+00
  0.00000000E+00  0.00000000E+00  0.00000000E+00
