9n                                      
   1.00000000000000     
    11.6672250000000002    0.0000000000000000    0.0000000000000000
    -5.8336125000000001   10.1041132500000010    0.0000000000000000
     0.0000002500000000    0.0000002500000000   26.1140000000000008
   C    Ce   H    O 
     1    36     1    73
Selective dynamics
Direct
  0.3014369837431695  0.3668977852787883  0.4870587807308133   T   T   T
  0.2236050660507301  0.1190670819366914  0.0304000000000002   F   F   F
  0.5569383993840660  0.1190670819366914  0.0304000000000002   F   F   F
  0.8902717327174088  0.1190670819366914  0.0304000000000002   F   F   F
  0.2236050660507303  0.4524004152700197  0.0304000000000002   F   F   F
  0.2236050660507304  0.7857337486033564  0.0304000000000002   F   F   F
  0.5569383993840660  0.7857337486033564  0.0304000000000002   F   F   F
  0.5569383993840660  0.4524004152700197  0.0304000000000002   F   F   F
  0.8902717327174159  0.4524004152700197  0.0304000000000002   F   F   F
  0.8902717327173946  0.7857337486033564  0.0304000000000002   F   F   F
  0.0013784117138441  0.6746270909627221  0.1520000000000010   F   F   F
  0.0013784117138514  0.3412937576293871  0.1520000000000010   F   F   F
  0.3347117450471728  0.3412937576293871  0.1520000000000010   F   F   F
  0.3347117450471725  0.6746270909627221  0.1520000000000010   F   F   F
  0.6680450783805079  0.6746270909627221  0.1520000000000010   F   F   F
  0.6680450783805078  0.3412937576293871  0.1520000000000010   F   F   F
  0.0013784117139011  0.0079604242960514  0.1520000000000010   F   F   F
  0.3347117450471728  0.0079604242960514  0.1520000000000010   F   F   F
  0.6680450783805085  0.0079604242960514  0.1520000000000010   F   F   F
  0.7787948256183740  0.5633425492714821  0.2724003861313523   T   T   T
  0.1124528310803453  0.5628534983507572  0.2728654926794895   T   T   T
  0.7795611741911155  0.2309173613168127  0.2719480000588297   T   T   T
  0.7797071279409681  0.8969657979505755  0.2729144916905087   T   T   T
  0.4456536004844924  0.8974915057155485  0.2729662176282452   T   T   T
  0.1119397659057211  0.8958249036010165  0.2719410248092157   T   T   T
  0.4471324164650718  0.2321903737270550  0.2731276112076256   T   T   T
  0.1133848550948800  0.2305669384814915  0.2739437585183198   T   T   T
  0.4451479045428813  0.5623816116926923  0.2749348370918989   T   T   T
  0.2278860282609784  0.1085147805806420  0.3908177273880888   T   T   T
  0.8861168927062986  0.1235589134570439  0.3921321656157564   T   T   T
  0.8862674147885691  0.7778129125377518  0.3930603219275565   T   T   T
  0.2241533669625281  0.7861449197995208  0.3936149853605699   T   T   T
  0.8895647461173599  0.4508593933872370  0.3933158756727073   T   T   T
  0.5607843627585579  0.1206220450141237  0.3929996209114820   T   T   T
  0.5576060550032151  0.7882881922464908  0.3934634300562372   T   T   T
  0.2186511144631741  0.4610261447433580  0.3962529238045759   T   T   T
  0.5699483660385607  0.4603229486835533  0.3956276040256747   T   T   T
  0.9998066567602131  1.0000290305553157  0.4757072383478716   T   T   T
  0.1124850629682761  0.8968537463468564  0.0000000000000000   F   F   F
  0.1124850629682755  0.2301870796801921  0.0000000000000000   F   F   F
  0.7791517296349397  0.5635204130135278  0.0000000000000000   F   F   F
  0.4458183963016111  0.5635204130135278  0.0000000000000000   F   F   F
  0.4458183963016115  0.8968537463468564  0.0000000000000000   F   F   F
  0.7791517296349397  0.8968537463468564  0.0000000000000000   F   F   F
  0.4458183963016111  0.2301870796801921  0.0000000000000000   F   F   F
  0.7791517296349610  0.2301870796801921  0.0000000000000000   F   F   F
  0.1124850629682754  0.5635204130135278  0.0000000000000000   F   F   F
  0.0013784024665072  0.3412937508599043  0.0608000000000004   F   F   F
  0.0013784024665070  0.6746270841932116  0.0608000000000004   F   F   F
  0.6680450691331785  0.3412937508599043  0.0608000000000004   F   F   F
  0.3347117357998858  0.3412937508599043  0.0608000000000004   F   F   F
  0.3347117357998503  0.6746270841932116  0.0608000000000004   F   F   F
  0.6680450691331927  0.6746270841932116  0.0608000000000004   F   F   F
  0.0013784024665071  0.0079604175265331  0.0608000000000004   F   F   F
  0.3347117357998360  0.0079604175265331  0.0608000000000004   F   F   F
  0.6680450691331707  0.0079604175265331  0.0608000000000004   F   F   F
  0.5569384086314031  0.1190670887062098  0.1216000000000008   F   F   F
  0.8902717419647331  0.1190670887062098  0.1216000000000008   F   F   F
  0.2236050752980689  0.1190670887062098  0.1216000000000008   F   F   F
  0.2236050752980683  0.7857337553728592  0.1216000000000008   F   F   F
  0.2236050752980756  0.4524004220395458  0.1216000000000008   F   F   F
  0.5569384086314031  0.7857337553728592  0.1216000000000008   F   F   F
  0.8902717419647613  0.7857337553728592  0.1216000000000008   F   F   F
  0.8902717419647537  0.4524004220395458  0.1216000000000008   F   F   F
  0.5569384086314110  0.4524004220395458  0.1216000000000008   F   F   F
  0.1124850814629573  0.5635204265525793  0.1824000000000012   F   F   F
  0.1124850814629503  0.8968537598859008  0.1824000000000012   F   F   F
  0.4458184147963070  0.5635204265525793  0.1824000000000012   F   F   F
  0.7791517481296353  0.5635204265525793  0.1824000000000012   F   F   F
  0.7791517481296352  0.8968537598859008  0.1824000000000012   F   F   F
  0.4458184147962857  0.8968537598859008  0.1824000000000012   F   F   F
  0.1124850814629568  0.2301870932192287  0.1824000000000012   F   F   F
  0.7791517481296502  0.2301870932192287  0.1824000000000012   F   F   F
  0.4458184147962999  0.2301870932192287  0.1824000000000012   F   F   F
  0.6682934469044460  0.3411505601243235  0.2421487294384233   T   T   T
  0.0016324977750484  0.6747365943571134  0.2425655045186287   T   T   T
  0.0013731805863819  0.3410767914749926  0.2423882696916564   T   T   T
  0.6677477877595773  0.6754254532005344  0.2429913018670880   T   T   T
  0.3350706171551704  0.0082665087199549  0.2425086528698516   T   T   T
  0.3351255946777210  0.6747326360628828  0.2433684051287818   T   T   T
  0.6675667742413226  0.0078119460127457  0.2429791002079729   T   T   T
  0.0019635899784133  0.0081031371916074  0.2428170437113497   T   T   T
  0.3341930098953833  0.3405886758694865  0.2435730318975665   T   T   T
  0.5593778384582706  0.4528260297403823  0.3026251351078759   T   T   T
  0.2245830175993902  0.1164851959449354  0.3030547214436850   T   T   T
  0.8935486653137467  0.1217368633642198  0.3032126083614852   T   T   T
  0.2200302642142332  0.4495162356124936  0.3034434568294401   T   T   T
  0.8896981961427450  0.4512206062247738  0.3030945634777649   T   T   T
  0.8900833712465895  0.7856871814531000  0.3033452687600897   T   T   T
  0.2237623455369461  0.7872096998795911  0.3037826045025622   T   T   T
  0.5563501684261768  0.1226839111293903  0.3040606129557669   T   T   T
  0.5575099972517847  0.7858565950321046  0.3047391065976729   T   T   T
  0.7780530347692515  0.2263418387432122  0.3601721580301473   T   T   T
  0.7877718266474505  0.9048010557327082  0.3627125044349636   T   T   T
  0.4489590431207059  0.9023820456832694  0.3616645483964074   T   T   T
  0.7852289791491543  0.5661810997293573  0.3623358908019315   T   T   T
  0.1087686072672045  0.5672975871493326  0.3631323012750245   T   T   T
  0.1089122327198068  0.8988593121500960  0.3632487579891825   T   T   T
  0.4389402643005341  0.2298464726700044  0.3653540549423893   T   T   T
  0.4462944359196985  0.5644308463342634  0.3655922890552382   T   T   T
  0.1142438832643145  0.2168361673941905  0.3674499246553740   T   T   T
  0.6691897942391717  0.0098607229273374  0.4232280502583460   T   T   T
  0.9992880044576349  0.6771949672475226  0.4245715903947904   T   T   T
  0.3312810861855623  0.0047464412319661  0.4234656035811019   T   T   T
  0.3398851676632643  0.6934154377164748  0.4246015669891386   T   T   T
  0.6813503444284722  0.6922383422887369  0.4251966458595536   T   T   T
  0.6770184685234881  0.3333085635545375  0.4236148658984007   T   T   T
  0.9842559376044346  0.3323491006748139  0.4238622650512779   T   T   T
  0.3367044538388975  0.3239547357390177  0.4478233179708581   T   T   T
  0.9995830578383853  1.0010728077937139  0.4384089798708650   T   T   T
  0.3047966691354608  0.3572854759039194  0.5329161792119056   T   T   T
 
  0.00000000E+00  0.00000000E+00  0.00000000E+00
  0.00000000E+00  0.00000000E+00  0.00000000E+00
  0.00000000E+00  0.00000000E+00  0.00000000E+00
  0.00000000E+00  0.00000000E+00  0.00000000E+00
  0.00000000E+00  0.00000000E+00  0.00000000E+00
  0.00000000E+00  0.00000000E+00  0.00000000E+00
  0.00000000E+00  0.00000000E+00  0.00000000E+00
  0.00000000E+00  0.00000000E+00  0.00000000E+00
  0.00000000E+00  0.00000000E+00  0.00000000E+00
  0.00000000E+00  0.00000000E+00  0.00000000E+00
  0.00000000E+00  0.00000000E+00  0.00000000E+00
  0.00000000E+00  0.00000000E+00  0.00000000E+00
  0.00000000E+00  0.00000000E+00  0.00000000E+00
  0.00000000E+00  0.00000000E+00  0.00000000E+00
  0.00000000E+00  0.00000000E+00  0.00000000E+00
  0.00000000E+00  0.00000000E+00  0.00000000E+00
  0.00000000E+00  0.00000000E+00  0.00000000E+00
  0.00000000E+00  0.00000000E+00  0.00000000E+00
  0.00000000E+00  0.00000000E+00  0.00000000E+00
  0.00000000E+00  0.00000000E+00  0.00000000E+00
  0.00000000E+00  0.00000000E+00  0.00000000E+00
  0.00000000E+00  0.00000000E+00  0.00000000E+00
  0.00000000E+00  0.00000000E+00  0.00000000E+00
  0.00000000E+00  0.00000000E+00  0.00000000E+00
  0.00000000E+00  0.00000000E+00  0.00000000E+00
  0.00000000E+00  0.00000000E+00  0.00000000E+00
  0.00000000E+00  0.00000000E+00  0.00000000E+00
  0.00000000E+00  0.00000000E+00  0.00000000E+00
  0.00000000E+00  0.00000000E+00  0.00000000E+00
  0.00000000E+00  0.00000000E+00  0.00000000E+00
  0.00000000E+00  0.00000000E+00  0.00000000E+00
  0.00000000E+00  0.00000000E+00  0.00000000E+00
  0.00000000E+00  0.00000000E+00  0.00000000E+00
  0.00000000E+00  0.00000000E+00  0.00000000E+00
  0.00000000E+00  0.00000000E+00  0.00000000E+00
  0.00000000E+00  0.00000000E+00  0.00000000E+00
  0.00000000E+00  0.00000000E+00  0.00000000E+00
  0.00000000E+00  0.00000000E+00  0.00000000E+00
  0.00000000E+00  0.00000000E+00  0.00000000E+00
  0.00000000E+00  0.00000000E+00  0.00000000E+00
  0.00000000E+00  0.00000000E+00  0.00000000E+00
  0.00000000E+00  0.00000000E+00  0.00000000E+00
  0.00000000E+00  0.00000000E+00  0.00000000E+00
  0.00000000E+00  0.00000000E+00  0.00000000E+00
  0.00000000E+00  0.00000000E+00  0.00000000E+00
  0.00000000E+00  0.00000000E+00  0.00000000E+00
  0.00000000E+00  0.00000000E+00  0.00000000E+00
  0.00000000E+00  0.00000000E+00  0.00000000E+00
  0.00000000E+00  0.00000000E+00  0.00000000E+00
  0.00000000E+00  0.00000000E+00  0.00000000E+00
  0.00000000E+00  0.00000000E+00  0.00000000E+00
  0.00000000E+00  0.00000000E+00  0.00000000E+00
  0.00000000E+00  0.00000000E+00  0.00000000E+00
  0.00000000E+00  0.00000000E+00  0.00000000E+00
  0.00000000E+00  0.00000000E+00  0.00000000E+00
  0.00000000E+00  0.00000000E+00  0.00000000E+00
  0.00000000E+00  0.00000000E+00  0.00000000E+00
  0.00000000E+00  0.00000000E+00  0.00000000E+00
  0.00000000E+00  0.00000000E+00  0.00000000E+00
  0.00000000E+00  0.00000000E+00  0.00000000E+00
  0.00000000E+00  0.00000000E+00  0.00000000E+00
  0.00000000E+00  0.00000000E+00  0.00000000E+00
  0.00000000E+00  0.00000000E+00  0.00000000E+00
  0.00000000E+00  0.00000000E+00  0.00000000E+00
  0.00000000E+00  0.00000000E+00  0.00000000E+00
  0.00000000E+00  0.00000000E+00  0.00000000E+00
  0.00000000E+00  0.00000000E+00  0.00000000E+00
  0.00000000E+00  0.00000000E+00  0.00000000E+00
  0.00000000E+00  0.00000000E+00  0.00000000E+00
  0.00000000E+00  0.00000000E+00  0.00000000E+00
  0.00000000E+00  0.00000000E+00  0.00000000E+00
  0.00000000E+00  0.00000000E+00  0.00000000E+00
  0.00000000E+00  0.00000000E+00  0.00000000E+00
  0.00000000E+00  0.00000000E+00  0.00000000E+00
  0.00000000E+00  0.00000000E+00  0.00000000E+00
  0.00000000E+00  0.00000000E+00  0.00000000E+00
  0.00000000E+00  0.00000000E+00  0.00000000E+00
  0.00000000E+00  0.00000000E+00  0.00000000E+00
  0.00000000E+00  0.00000000E+00  0.00000000E+00
  0.00000000E+00  0.00000000E+00  0.00000000E+00
  0.00000000E+00  0.00000000E+00  0.00000000E+00
  0.00000000E+00  0.00000000E+00  0.00000000E+00
  0.00000000E+00  0.00000000E+00  0.00000000E+00
  0.00000000E+00  0.00000000E+00  0.00000000E+00
  0.00000000E+00  0.00000000E+00  0.00000000E+00
  0.00000000E+00  0.00000000E+00  0.00000000E+00
  0.00000000E+00  0.00000000E+00  0.00000000E+00
  0.00000000E+00  0.00000000E+00  0.00000000E+00
  0.00000000E+00  0.00000000E+00  0.00000000E+00
  0.00000000E+00  0.00000000E+00  0.00000000E+00
  0.00000000E+00  0.00000000E+00  0.00000000E+00
  0.00000000E+00  0.00000000E+00  0.00000000E+00
  0.00000000E+00  0.00000000E+00  0.00000000E+00
  0.00000000E+00  0.00000000E+00  0.00000000E+00
  0.00000000E+00  0.00000000E+00  0.00000000E+00
  0.00000000E+00  0.00000000E+00  0.00000000E+00
  0.00000000E+00  0.00000000E+00  0.00000000E+00
  0.00000000E+00  0.00000000E+00  0.00000000E+00
  0.00000000E+00  0.00000000E+00  0.00000000E+00
  0.00000000E+00  0.00000000E+00  0.00000000E+00
  0.00000000E+00  0.00000000E+00  0.00000000E+00
  0.00000000E+00  0.00000000E+00  0.00000000E+00
  0.00000000E+00  0.00000000E+00  0.00000000E+00
  0.00000000E+00  0.00000000E+00  0.00000000E+00
  0.00000000E+00  0.00000000E+00  0.00000000E+00
  0.00000000E+00  0.00000000E+00  0.00000000E+00
  0.00000000E+00  0.00000000E+00  0.00000000E+00
  0.00000000E+00  0.00000000E+00  0.00000000E+00
  0.00000000E+00  0.00000000E+00  0.00000000E+00
  0.00000000E+00  0.00000000E+00  0.00000000E+00
  0.00000000E+00  0.00000000E+00  0.00000000E+00
