7n                                      
   1.00000000000000     
     9.7226874999999993    3.3680377500000001    0.0000000000000000
    -7.7781500000000001    6.7360755000000001    0.0000000000000000
     0.0000002500000000    0.0000002500000000   26.1140000000000008
   Ce   H    O 
    28     1    55
Selective dynamics
Direct
  0.4075685910219775  0.4922691740566935  0.0304000000000002   F   F   F
  0.5504257338791164  0.9208406026281182  0.0304000000000002   F   F   F
  0.8361400195934096  0.7779834597709775  0.0304000000000002   F   F   F
  0.6932828767362601  0.3494120311995469  0.0304000000000002   F   F   F
  0.9789971624505526  0.2065548883424007  0.0304000000000002   F   F   F
  0.2647114481648319  0.0636977454852631  0.0304000000000002   F   F   F
  0.1218543053076920  0.6351263169138300  0.0304000000000002   F   F   F
  0.3123286054586519  0.8732291803773971  0.1520000000000010   F   F   F
  0.1694714626015211  0.4446577518059693  0.1520000000000010   F   F   F
  0.4551857483157995  0.3018006089488302  0.1520000000000010   F   F   F
  0.5980428911729433  0.7303720375202523  0.1520000000000010   F   F   F
  0.8837571768872253  0.5875148946631138  0.1520000000000010   F   F   F
  0.7409000340300829  0.1589434660916841  0.1520000000000010   F   F   F
  0.0266143197443753  0.0160863232345462  0.1520000000000010   F   F   F
  0.5041189124374186  0.1131721821690369  0.2733699491214581   T   T   T
  0.3598529620687569  0.6851432971393884  0.2719960028493232   T   T   T
  0.6428056171640084  0.5383868945277349  0.2733693956835904   T   T   T
  0.0718317550817719  0.8236095753845085  0.2727848481069025   T   T   T
  0.9351313976714049  0.3990598858380604  0.2704832611614216   T   T   T
  0.7895013131223345  0.9688754713096527  0.2739181485621399   T   T   T
  0.2185157253941361  0.2539790130784787  0.2741939459647892   T   T   T
  0.2562278737210043  0.0452065044503638  0.3929140615908763   T   T   T
  0.5538004983628715  0.9259210626377103  0.3950412797050050   T   T   T
  0.8215106330284665  0.7644744385968422  0.3960765119276814   T   T   T
  0.3980705968326665  0.5084414731542118  0.3937026583362244   T   T   T
  0.1240778243633044  0.6386103023253031  0.3938914690471845   T   T   T
  0.7197611411384205  0.3556890571773684  0.3906216170931825   T   T   T
  0.9819234949734119  0.2145026140616297  0.3927857967388357   T   T   T
  1.0065262323606143  1.0103173720672953  0.4785913063138053   T   T   T
  0.0742314445556573  0.8256177439051058  0.0000000000000000   F   F   F
  0.2170885874128032  0.2541891724765292  0.0000000000000000   F   F   F
  0.9313743016985174  0.3970463153336726  0.0000000000000000   F   F   F
  0.6456600159842338  0.5399034581908211  0.0000000000000000   F   F   F
  0.7885171588413721  0.9684748867622415  0.0000000000000000   F   F   F
  0.5028028731270867  0.1113320296193897  0.0000000000000000   F   F   F
  0.3599457302699422  0.6827606010479594  0.0000000000000000   F   F   F
  0.1694714517739933  0.4446577470654329  0.0608000000000004   F   F   F
  0.3123285946311469  0.8732291756368866  0.0608000000000004   F   F   F
  0.7409000232025718  0.1589434613511476  0.0608000000000004   F   F   F
  0.4551857374882852  0.3018006042082872  0.0608000000000004   F   F   F
  0.5980428803454422  0.7303720327797464  0.0608000000000004   F   F   F
  0.8837571660597305  0.5875148899225948  0.0608000000000004   F   F   F
  0.0266143089168622  0.0160863184940183  0.0608000000000004   F   F   F
  0.9789971732780597  0.2065548930829080  0.1216000000000008   F   F   F
  0.6932828875637819  0.3494120359400461  0.1216000000000008   F   F   F
  0.2647114589923447  0.0636977502257849  0.1216000000000008   F   F   F
  0.5504257447066155  0.9208406073686096  0.1216000000000008   F   F   F
  0.4075686018494900  0.4922691787971908  0.1216000000000008   F   F   F
  0.1218543161351974  0.6351263216543372  0.1216000000000008   F   F   F
  0.8361400304209070  0.7779834645114718  0.1216000000000008   F   F   F
  0.0742314662106906  0.8256177533861617  0.1824000000000012   F   F   F
  0.3599457519249824  0.6827606105290158  0.1824000000000012   F   F   F
  0.6456600376392674  0.5399034676718699  0.1824000000000012   F   F   F
  0.9313743233535593  0.3970463248147240  0.1824000000000012   F   F   F
  0.7885171804963989  0.9684748962432934  0.1824000000000012   F   F   F
  0.2170886090678295  0.2541891819575781  0.1824000000000012   F   F   F
  0.5028028947821213  0.1113320391004322  0.1824000000000012   F   F   F
  0.1708194627351916  0.4456397784463181  0.2418256561222967   T   T   T
  0.4563187319008992  0.3020851655709989  0.2431123684238564   T   T   T
  0.7420757984303485  0.1587782613343219  0.2424942337426811   T   T   T
  0.8829847180377396  0.5876874756333771  0.2416535231955795   T   T   T
  0.3143143848279966  0.8745166156651125  0.2423090048706597   T   T   T
  0.5969515897426866  0.7329474976296991  0.2427353674461280   T   T   T
  0.0247949407829286  0.0139450027326389  0.2435973188911316   T   T   T
  0.5531678982331236  0.9296529165455991  0.3056086454060261   T   T   T
  0.8248503357680854  0.7667605769366911  0.3037268502856582   T   T   T
  0.2664934718935840  0.0620597698633674  0.3019141559575348   T   T   T
  0.1206298895189453  0.6366616669979562  0.3019945768262549   T   T   T
  0.6987245963145042  0.3521342139962795  0.3022611501017735   T   T   T
  0.9857482941776651  0.2105815206435570  0.3028930027870588   T   T   T
  0.4066803428773148  0.4932816140114264  0.3022206474470838   T   T   T
  0.5092869109616568  0.1306268284629089  0.3690515947027077   T   T   T
  0.0698772317290558  0.8228332129232682  0.3629011144293797   T   T   T
  0.9375126003169890  0.3982166193391871  0.3592609693753667   T   T   T
  0.3571393255885980  0.6897311885653455  0.3601989665082506   T   T   T
  0.6275628259836153  0.5102339214549126  0.3716142065302587   T   T   T
  0.8002763537675958  0.9790984874601150  0.3628708291160628   T   T   T
  0.2152333774372533  0.2487940804772844  0.3679439232581039   T   T   T
  0.1528640782501735  0.4459110006861544  0.4261954220638376   T   T   T
  0.5917119022581042  0.7495855393869879  0.4268759565592500   T   T   T
  0.3161991881783627  0.8634340869852375  0.4264560811964048   T   T   T
  0.8915405455399791  0.5747124250868002  0.4264455497047204   T   T   T
  0.7544314703925440  0.1682008155790615  0.4253116240150620   T   T   T
  0.0206803333747606  0.0167808820441509  0.4416795021724053   T   T   T
 
  0.00000000E+00  0.00000000E+00  0.00000000E+00
  0.00000000E+00  0.00000000E+00  0.00000000E+00
  0.00000000E+00  0.00000000E+00  0.00000000E+00
  0.00000000E+00  0.00000000E+00  0.00000000E+00
  0.00000000E+00  0.00000000E+00  0.00000000E+00
  0.00000000E+00  0.00000000E+00  0.00000000E+00
  0.00000000E+00  0.00000000E+00  0.00000000E+00
  0.00000000E+00  0.00000000E+00  0.00000000E+00
  0.00000000E+00  0.00000000E+00  0.00000000E+00
  0.00000000E+00  0.00000000E+00  0.00000000E+00
  0.00000000E+00  0.00000000E+00  0.00000000E+00
  0.00000000E+00  0.00000000E+00  0.00000000E+00
  0.00000000E+00  0.00000000E+00  0.00000000E+00
  0.00000000E+00  0.00000000E+00  0.00000000E+00
  0.00000000E+00  0.00000000E+00  0.00000000E+00
  0.00000000E+00  0.00000000E+00  0.00000000E+00
  0.00000000E+00  0.00000000E+00  0.00000000E+00
  0.00000000E+00  0.00000000E+00  0.00000000E+00
  0.00000000E+00  0.00000000E+00  0.00000000E+00
  0.00000000E+00  0.00000000E+00  0.00000000E+00
  0.00000000E+00  0.00000000E+00  0.00000000E+00
  0.00000000E+00  0.00000000E+00  0.00000000E+00
  0.00000000E+00  0.00000000E+00  0.00000000E+00
  0.00000000E+00  0.00000000E+00  0.00000000E+00
  0.00000000E+00  0.00000000E+00  0.00000000E+00
  0.00000000E+00  0.00000000E+00  0.00000000E+00
  0.00000000E+00  0.00000000E+00  0.00000000E+00
  0.00000000E+00  0.00000000E+00  0.00000000E+00
  0.00000000E+00  0.00000000E+00  0.00000000E+00
  0.00000000E+00  0.00000000E+00  0.00000000E+00
  0.00000000E+00  0.00000000E+00  0.00000000E+00
  0.00000000E+00  0.00000000E+00  0.00000000E+00
  0.00000000E+00  0.00000000E+00  0.00000000E+00
  0.00000000E+00  0.00000000E+00  0.00000000E+00
  0.00000000E+00  0.00000000E+00  0.00000000E+00
  0.00000000E+00  0.00000000E+00  0.00000000E+00
  0.00000000E+00  0.00000000E+00  0.00000000E+00
  0.00000000E+00  0.00000000E+00  0.00000000E+00
  0.00000000E+00  0.00000000E+00  0.00000000E+00
  0.00000000E+00  0.00000000E+00  0.00000000E+00
  0.00000000E+00  0.00000000E+00  0.00000000E+00
  0.00000000E+00  0.00000000E+00  0.00000000E+00
  0.00000000E+00  0.00000000E+00  0.00000000E+00
  0.00000000E+00  0.00000000E+00  0.00000000E+00
  0.00000000E+00  0.00000000E+00  0.00000000E+00
  0.00000000E+00  0.00000000E+00  0.00000000E+00
  0.00000000E+00  0.00000000E+00  0.00000000E+00
  0.00000000E+00  0.00000000E+00  0.00000000E+00
  0.00000000E+00  0.00000000E+00  0.00000000E+00
  0.00000000E+00  0.00000000E+00  0.00000000E+00
  0.00000000E+00  0.00000000E+00  0.00000000E+00
  0.00000000E+00  0.00000000E+00  0.00000000E+00
  0.00000000E+00  0.00000000E+00  0.00000000E+00
  0.00000000E+00  0.00000000E+00  0.00000000E+00
  0.00000000E+00  0.00000000E+00  0.00000000E+00
  0.00000000E+00  0.00000000E+00  0.00000000E+00
  0.00000000E+00  0.00000000E+00  0.00000000E+00
  0.00000000E+00  0.00000000E+00  0.00000000E+00
  0.00000000E+00  0.00000000E+00  0.00000000E+00
  0.00000000E+00  0.00000000E+00  0.00000000E+00
  0.00000000E+00  0.00000000E+00  0.00000000E+00
  0.00000000E+00  0.00000000E+00  0.00000000E+00
  0.00000000E+00  0.00000000E+00  0.00000000E+00
  0.00000000E+00  0.00000000E+00  0.00000000E+00
  0.00000000E+00  0.00000000E+00  0.00000000E+00
  0.00000000E+00  0.00000000E+00  0.00000000E+00
  0.00000000E+00  0.00000000E+00  0.00000000E+00
  0.00000000E+00  0.00000000E+00  0.00000000E+00
  0.00000000E+00  0.00000000E+00  0.00000000E+00
  0.00000000E+00  0.00000000E+00  0.00000000E+00
  0.00000000E+00  0.00000000E+00  0.00000000E+00
  0.00000000E+00  0.00000000E+00  0.00000000E+00
  0.00000000E+00  0.00000000E+00  0.00000000E+00
  0.00000000E+00  0.00000000E+00  0.00000000E+00
  0.00000000E+00  0.00000000E+00  0.00000000E+00
  0.00000000E+00  0.00000000E+00  0.00000000E+00
  0.00000000E+00  0.00000000E+00  0.00000000E+00
  0.00000000E+00  0.00000000E+00  0.00000000E+00
  0.00000000E+00  0.00000000E+00  0.00000000E+00
  0.00000000E+00  0.00000000E+00  0.00000000E+00
  0.00000000E+00  0.00000000E+00  0.00000000E+00
  0.00000000E+00  0.00000000E+00  0.00000000E+00
  0.00000000E+00  0.00000000E+00  0.00000000E+00
  0.00000000E+00  0.00000000E+00  0.00000000E+00
