C    Ce   H    O                        
   1.00000000000000     
    13.4722000000000008    0.0000000000000000    0.0000000000000000
     6.7361000000000004   11.6672670000000007    0.0000000000000000
     0.0000010000000000    0.0000000000000000   26.1140000000000008
   C    Ce   H    O 
     1    48     1    97
Selective dynamics
Direct
  0.2849512718485327  0.3839581149921711  0.4854285380674626   T   T   T
  0.8333300000003976  0.6666700000000058  0.0304000000000002   F   F   F
  0.1666700000000101  0.4999999999999943  0.0304000000000002   F   F   F
  0.8333300000004988  0.1666700000000039  0.0304000000000002   F   F   F
  0.5000000000003999  0.8333299999999902  0.0304000000000002   F   F   F
  0.3333300000002529  0.1666700000000039  0.0304000000000002   F   F   F
  0.0000000000000071  0.8333299999999902  0.0304000000000002   F   F   F
  0.6666699999999701  0.4999999999999943  0.0304000000000002   F   F   F
 -0.0000000000000005  0.3333300000000047  0.0304000000000002   F   F   F
  0.6666700000005671  0.0000000000000000  0.0304000000000002   F   F   F
  0.3333300000007015  0.6666700000000058  0.0304000000000002   F   F   F
  0.1666700000000034  0.0000000000000000  0.0304000000000002   F   F   F
  0.5000000000006773  0.3333300000000047  0.0304000000000002   F   F   F
  0.3333299999999828  0.3333300000000047  0.1520000000000010   F   F   F
  0.6666700000004234  0.6666700000000058  0.1520000000000010   F   F   F
  0.5000000000000080  0.0000000000000000  0.1520000000000010   F   F   F
  0.1666699999999959  0.6666700000000058  0.1520000000000010   F   F   F
  0.8333300000003663  0.3333300000000047  0.1520000000000010   F   F   F
  0.1666700000002031  0.1666700000000039  0.1520000000000010   F   F   F
  0.4999999999999815  0.4999999999999943  0.1520000000000010   F   F   F
  0.8333300000000953  0.8333299999999902  0.1520000000000010   F   F   F
  0.0000000000001991  0.4999999999999943  0.1520000000000010   F   F   F
  0.6666700000000407  0.1666700000000039  0.1520000000000010   F   F   F
  0.3333300000000042  0.8333299999999902  0.1520000000000010   F   F   F
  0.0000000000000000  0.0000000000000000  0.1520000000000010   F   F   F
  0.9982386401213206  0.6681795468320031  0.2720740935463187   T   T   T
  0.1660435842537561  0.8324408301551419  0.2721779542843124   T   T   T
  0.6685202943999136  0.3337394058253036  0.2716643478184756   T   T   T
  0.3331283919122468  0.9992100670200424  0.2732596311194845   T   T   T
  0.6663011207261340  0.8333591175425964  0.2727005460532863   T   T   T
  0.8334767295353128  0.0011338240967481  0.2728751839279385   T   T   T
  0.5003504352421182  0.6658031016265598  0.2729531127091984   T   T   T
  0.8342973827561255  0.5002129130470407  0.2732320081189195   T   T   T
  0.0017339680760189  0.1667509387201894  0.2739737566557284   T   T   T
  0.3330162475429590  0.4989825534950947  0.2738140759421182   T   T   T
  0.1666844243112803  0.3332287430111414  0.2753654360919356   T   T   T
  0.4994452790623908  0.1668678822210785  0.2736624670755727   T   T   T
  0.3401935346530185  0.1546553277918254  0.3942577657106084   T   T   T
  0.1668034237626630  0.9883700184193920  0.3927175299614574   T   T   T
  0.9971857819120983  0.8354425237836285  0.3929770159733965   T   T   T
  0.8300588957182373  0.6702565252505313  0.3934226767604850   T   T   T
  0.6674695233412812  0.5013755985186679  0.3931796876036475   T   T   T
  0.5021056454091042  0.8296569171953805  0.3935552969770372   T   T   T
  0.6684000657141743  0.9988067365991945  0.3936245575336527   T   T   T
  0.8368181868593716  0.1670450384054717  0.3935938237119774   T   T   T
  0.3331329439324113  0.6633597958755861  0.3936064274770111   T   T   T
  0.1527385837600434  0.5129418491565435  0.3927448773091673   T   T   T
  0.5153231404966667  0.3322328718776211  0.3910168221381911   T   T   T
  0.9948573856011316  0.3406219923916928  0.3966739842470882   T   T   T
  0.1707677652984837  0.1522034927982317  0.4786719243942673   T   T   T
 -0.0000000000000002  0.1666700000000039  0.0000000000000000   F   F   F
  0.3333300000000042  0.4999999999999943  0.0000000000000000   F   F   F
  0.6666700000000749  0.8333299999999902  0.0000000000000000   F   F   F
  0.3333299999999966  0.0000000000000000  0.0000000000000000   F   F   F
  0.4999999999999721  0.1666700000000039  0.0000000000000000   F   F   F
  0.1666699999999675  0.8333299999999902  0.0000000000000000   F   F   F
  0.8333300000000194  0.4999999999999943  0.0000000000000000   F   F   F
  0.0000000000000069  0.6666700000000058  0.0000000000000000   F   F   F
  0.1666700000000030  0.3333300000000047  0.0000000000000000   F   F   F
  0.8333300000000049  0.0000000000000000  0.0000000000000000   F   F   F
  0.4999999999999726  0.6666700000000058  0.0000000000000000   F   F   F
  0.6666700000004802  0.3333300000000047  0.0000000000000000   F   F   F
  0.0000000000001921  0.4999999999999943  0.0608000000000004   F   F   F
  0.6666699999999838  0.1666700000000039  0.0608000000000004   F   F   F
  0.3333299999999891  0.8333299999999902  0.0608000000000004   F   F   F
  0.0000000000000000  0.0000000000000000  0.0608000000000004   F   F   F
  0.3333299999999894  0.3333300000000047  0.0608000000000004   F   F   F
  0.6666700000004733  0.6666700000000058  0.0608000000000004   F   F   F
  0.4999999999999932  0.0000000000000000  0.0608000000000004   F   F   F
  0.1666700000000164  0.6666700000000058  0.0608000000000004   F   F   F
  0.8333300000003477  0.3333300000000047  0.0608000000000004   F   F   F
  0.1666700000000037  0.1666700000000039  0.0608000000000004   F   F   F
  0.5000000000000011  0.4999999999999943  0.0608000000000004   F   F   F
  0.8333300000007440  0.8333299999999902  0.0608000000000004   F   F   F
  0.3333300000002672  0.1666700000000039  0.1216000000000008   F   F   F
  0.0000000000003128  0.8333299999999902  0.1216000000000008   F   F   F
  0.6666700000000102  0.4999999999999943  0.1216000000000008   F   F   F
  0.1666700000003522  0.4999999999999943  0.1216000000000008   F   F   F
  0.8333299999999972  0.1666700000000039  0.1216000000000008   F   F   F
  0.4999999999999923  0.8333299999999902  0.1216000000000008   F   F   F
  0.1666700000000035  0.0000000000000000  0.1216000000000008   F   F   F
 -0.0000000000000005  0.3333300000000047  0.1216000000000008   F   F   F
  0.4999999999999920  0.3333300000000047  0.1216000000000008   F   F   F
  0.8333300000002885  0.6666700000000058  0.1216000000000008   F   F   F
  0.6666700000000034  0.0000000000000000  0.1216000000000008   F   F   F
  0.3333300000000028  0.6666700000000058  0.1216000000000008   F   F   F
 -0.0000000000000001  0.1666700000000039  0.1824000000000012   F   F   F
  0.3333300000000037  0.4999999999999943  0.1824000000000012   F   F   F
  0.6666699999999691  0.8333299999999902  0.1824000000000012   F   F   F
  0.3333299999999966  0.0000000000000000  0.1824000000000012   F   F   F
  0.0000000000000208  0.6666700000000058  0.1824000000000012   F   F   F
  0.6666700000008945  0.3333300000000047  0.1824000000000012   F   F   F
  0.1666699999999898  0.3333300000000047  0.1824000000000012   F   F   F
  0.8333300000006248  0.0000000000000000  0.1824000000000012   F   F   F
  0.4999999999999592  0.6666700000000058  0.1824000000000012   F   F   F
  0.5000000000000155  0.1666700000000039  0.1824000000000012   F   F   F
  0.1666700000000172  0.8333299999999902  0.1824000000000012   F   F   F
  0.8333300000006622  0.4999999999999943  0.1824000000000012   F   F   F
  0.0005708323350424  0.4998315298303269  0.2426909265863968   T   T   T
  0.9998015868386153  0.0003785625277841  0.2424810880771172   T   T   T
  0.8316848016465809  0.8353921076376460  0.2426543060562315   T   T   T
  0.1670584172607885  0.6665121890216356  0.2424988440753448   T   T   T
  0.4996106028734442  0.5003974169039985  0.2425258851534623   T   T   T
  0.6657711552477584  0.6673218280978076  0.2427856047691411   T   T   T
  0.5007190642870617  0.9993813011924928  0.2426818024875535   T   T   T
  0.3339174375140426  0.8312056609184298  0.2429528296656278   T   T   T
  0.6673874613739884  0.1664613645331596  0.2428786408703340   T   T   T
  0.1669242050037576  0.1661294059443655  0.2435959272487125   T   T   T
  0.8342954446404256  0.3331847194005080  0.2427353794901897   T   T   T
  0.3329825848837221  0.3338251666688170  0.2441442599295737   T   T   T
  0.9989592297604208  0.8351463782601291  0.3028835959130443   T   T   T
  0.5028211227873399  0.3336315409143518  0.3030069946156307   T   T   T
  0.8337361142445670  0.6667621069647156  0.3026909501787605   T   T   T
  0.3356344570604342  0.1629773373518468  0.3029305340132271   T   T   T
  0.1671264616820700  0.9965670458751870  0.3031726135546825   T   T   T
  0.6665354427775135  0.5003157317755783  0.3031444729294746   T   T   T
  0.1630225601756921  0.5040964525211528  0.3037402936367250   T   T   T
  0.4990378157713236  0.8338228403444831  0.3042994603197763   T   T   T
  0.8360511676966850  0.1669735829381095  0.3042113514306329   T   T   T
  0.6641557597949702  0.0026379293057806  0.3048708053257573   T   T   T
  0.0009941303053533  0.3344035792711659  0.3039102976097146   T   T   T
  0.3334105695273412  0.6623172244076253  0.3050853139662915   T   T   T
  0.9946225774078191  0.6741307501974394  0.3616085897654644   T   T   T
  0.6690932714019708  0.3335949502564289  0.3607970474275302   T   T   T
  0.6684250091249926  0.8314401543409645  0.3614411413054552   T   T   T
  0.8336956669647504  0.0009389649718511  0.3625575687968530   T   T   T
  0.1660352614305426  0.8306835106122838  0.3617812462908979   T   T   T
  0.4997099806400823  0.6658013638104764  0.3626669878518505   T   T   T
  0.8271589432995857  0.5061195488797263  0.3629730168124674   T   T   T
  0.3280811601129975  0.9966806455898172  0.3645395579946525   T   T   T
  0.0083849177982226  0.1599080253381280  0.3647754693069666   T   T   T
  0.4983970505782958  0.1751534388972960  0.3660058328335900   T   T   T
  0.3359039887751064  0.4892329337826486  0.3659539516108472   T   T   T
  0.1737365837124122  0.3351324830899296  0.3672188407233074   T   T   T
  0.8300687551721018  0.8382919015754458  0.4237846372960064   T   T   T
  0.1646760449069119  0.6707659821164373  0.4230025947637090   T   T   T
  0.3307943610707802  0.8266886883233368  0.4240695348843021   T   T   T
  0.0021145745237980  0.9953203526534877  0.4243394184836601   T   T   T
  0.5032608217136477  0.4975496795822396  0.4230669981778686   T   T   T
  0.6623255552617563  0.6698559632704973  0.4244575789183755   T   T   T
  0.6717534346639060  0.1692775441865406  0.4234731247267263   T   T   T
  0.5125004321700229  0.9867788002765611  0.4239946560015828   T   T   T
  0.8234839805488318  0.3336686039936463  0.4245170275203156   T   T   T
  0.9901474004150287  0.5179911856047678  0.4254248543912865   T   T   T
  0.3432765445405070  0.3322060999909172  0.4470229894785807   T   T   T
  0.1688239409611628  0.1558847447442977  0.4414102146300762   T   T   T
  0.2800929746587014  0.3830035058338213  0.5310458715273286   T   T   T
 
  0.00000000E+00  0.00000000E+00  0.00000000E+00
  0.00000000E+00  0.00000000E+00  0.00000000E+00
  0.00000000E+00  0.00000000E+00  0.00000000E+00
  0.00000000E+00  0.00000000E+00  0.00000000E+00
  0.00000000E+00  0.00000000E+00  0.00000000E+00
  0.00000000E+00  0.00000000E+00  0.00000000E+00
  0.00000000E+00  0.00000000E+00  0.00000000E+00
  0.00000000E+00  0.00000000E+00  0.00000000E+00
  0.00000000E+00  0.00000000E+00  0.00000000E+00
  0.00000000E+00  0.00000000E+00  0.00000000E+00
  0.00000000E+00  0.00000000E+00  0.00000000E+00
  0.00000000E+00  0.00000000E+00  0.00000000E+00
  0.00000000E+00  0.00000000E+00  0.00000000E+00
  0.00000000E+00  0.00000000E+00  0.00000000E+00
  0.00000000E+00  0.00000000E+00  0.00000000E+00
  0.00000000E+00  0.00000000E+00  0.00000000E+00
  0.00000000E+00  0.00000000E+00  0.00000000E+00
  0.00000000E+00  0.00000000E+00  0.00000000E+00
  0.00000000E+00  0.00000000E+00  0.00000000E+00
  0.00000000E+00  0.00000000E+00  0.00000000E+00
  0.00000000E+00  0.00000000E+00  0.00000000E+00
  0.00000000E+00  0.00000000E+00  0.00000000E+00
  0.00000000E+00  0.00000000E+00  0.00000000E+00
  0.00000000E+00  0.00000000E+00  0.00000000E+00
  0.00000000E+00  0.00000000E+00  0.00000000E+00
  0.00000000E+00  0.00000000E+00  0.00000000E+00
  0.00000000E+00  0.00000000E+00  0.00000000E+00
  0.00000000E+00  0.00000000E+00  0.00000000E+00
  0.00000000E+00  0.00000000E+00  0.00000000E+00
  0.00000000E+00  0.00000000E+00  0.00000000E+00
  0.00000000E+00  0.00000000E+00  0.00000000E+00
  0.00000000E+00  0.00000000E+00  0.00000000E+00
  0.00000000E+00  0.00000000E+00  0.00000000E+00
  0.00000000E+00  0.00000000E+00  0.00000000E+00
  0.00000000E+00  0.00000000E+00  0.00000000E+00
  0.00000000E+00  0.00000000E+00  0.00000000E+00
  0.00000000E+00  0.00000000E+00  0.00000000E+00
  0.00000000E+00  0.00000000E+00  0.00000000E+00
  0.00000000E+00  0.00000000E+00  0.00000000E+00
  0.00000000E+00  0.00000000E+00  0.00000000E+00
  0.00000000E+00  0.00000000E+00  0.00000000E+00
  0.00000000E+00  0.00000000E+00  0.00000000E+00
  0.00000000E+00  0.00000000E+00  0.00000000E+00
  0.00000000E+00  0.00000000E+00  0.00000000E+00
  0.00000000E+00  0.00000000E+00  0.00000000E+00
  0.00000000E+00  0.00000000E+00  0.00000000E+00
  0.00000000E+00  0.00000000E+00  0.00000000E+00
  0.00000000E+00  0.00000000E+00  0.00000000E+00
  0.00000000E+00  0.00000000E+00  0.00000000E+00
  0.00000000E+00  0.00000000E+00  0.00000000E+00
  0.00000000E+00  0.00000000E+00  0.00000000E+00
  0.00000000E+00  0.00000000E+00  0.00000000E+00
  0.00000000E+00  0.00000000E+00  0.00000000E+00
  0.00000000E+00  0.00000000E+00  0.00000000E+00
  0.00000000E+00  0.00000000E+00  0.00000000E+00
  0.00000000E+00  0.00000000E+00  0.00000000E+00
  0.00000000E+00  0.00000000E+00  0.00000000E+00
  0.00000000E+00  0.00000000E+00  0.00000000E+00
  0.00000000E+00  0.00000000E+00  0.00000000E+00
  0.00000000E+00  0.00000000E+00  0.00000000E+00
  0.00000000E+00  0.00000000E+00  0.00000000E+00
  0.00000000E+00  0.00000000E+00  0.00000000E+00
  0.00000000E+00  0.00000000E+00  0.00000000E+00
  0.00000000E+00  0.00000000E+00  0.00000000E+00
  0.00000000E+00  0.00000000E+00  0.00000000E+00
  0.00000000E+00  0.00000000E+00  0.00000000E+00
  0.00000000E+00  0.00000000E+00  0.00000000E+00
  0.00000000E+00  0.00000000E+00  0.00000000E+00
  0.00000000E+00  0.00000000E+00  0.00000000E+00
  0.00000000E+00  0.00000000E+00  0.00000000E+00
  0.00000000E+00  0.00000000E+00  0.00000000E+00
  0.00000000E+00  0.00000000E+00  0.00000000E+00
  0.00000000E+00  0.00000000E+00  0.00000000E+00
  0.00000000E+00  0.00000000E+00  0.00000000E+00
  0.00000000E+00  0.00000000E+00  0.00000000E+00
  0.00000000E+00  0.00000000E+00  0.00000000E+00
  0.00000000E+00  0.00000000E+00  0.00000000E+00
  0.00000000E+00  0.00000000E+00  0.00000000E+00
  0.00000000E+00  0.00000000E+00  0.00000000E+00
  0.00000000E+00  0.00000000E+00  0.00000000E+00
  0.00000000E+00  0.00000000E+00  0.00000000E+00
  0.00000000E+00  0.00000000E+00  0.00000000E+00
  0.00000000E+00  0.00000000E+00  0.00000000E+00
  0.00000000E+00  0.00000000E+00  0.00000000E+00
  0.00000000E+00  0.00000000E+00  0.00000000E+00
  0.00000000E+00  0.00000000E+00  0.00000000E+00
  0.00000000E+00  0.00000000E+00  0.00000000E+00
  0.00000000E+00  0.00000000E+00  0.00000000E+00
  0.00000000E+00  0.00000000E+00  0.00000000E+00
  0.00000000E+00  0.00000000E+00  0.00000000E+00
  0.00000000E+00  0.00000000E+00  0.00000000E+00
  0.00000000E+00  0.00000000E+00  0.00000000E+00
  0.00000000E+00  0.00000000E+00  0.00000000E+00
  0.00000000E+00  0.00000000E+00  0.00000000E+00
  0.00000000E+00  0.00000000E+00  0.00000000E+00
  0.00000000E+00  0.00000000E+00  0.00000000E+00
  0.00000000E+00  0.00000000E+00  0.00000000E+00
  0.00000000E+00  0.00000000E+00  0.00000000E+00
  0.00000000E+00  0.00000000E+00  0.00000000E+00
  0.00000000E+00  0.00000000E+00  0.00000000E+00
  0.00000000E+00  0.00000000E+00  0.00000000E+00
  0.00000000E+00  0.00000000E+00  0.00000000E+00
  0.00000000E+00  0.00000000E+00  0.00000000E+00
  0.00000000E+00  0.00000000E+00  0.00000000E+00
  0.00000000E+00  0.00000000E+00  0.00000000E+00
  0.00000000E+00  0.00000000E+00  0.00000000E+00
  0.00000000E+00  0.00000000E+00  0.00000000E+00
  0.00000000E+00  0.00000000E+00  0.00000000E+00
  0.00000000E+00  0.00000000E+00  0.00000000E+00
  0.00000000E+00  0.00000000E+00  0.00000000E+00
  0.00000000E+00  0.00000000E+00  0.00000000E+00
  0.00000000E+00  0.00000000E+00  0.00000000E+00
  0.00000000E+00  0.00000000E+00  0.00000000E+00
  0.00000000E+00  0.00000000E+00  0.00000000E+00
  0.00000000E+00  0.00000000E+00  0.00000000E+00
  0.00000000E+00  0.00000000E+00  0.00000000E+00
  0.00000000E+00  0.00000000E+00  0.00000000E+00
  0.00000000E+00  0.00000000E+00  0.00000000E+00
  0.00000000E+00  0.00000000E+00  0.00000000E+00
  0.00000000E+00  0.00000000E+00  0.00000000E+00
  0.00000000E+00  0.00000000E+00  0.00000000E+00
  0.00000000E+00  0.00000000E+00  0.00000000E+00
  0.00000000E+00  0.00000000E+00  0.00000000E+00
  0.00000000E+00  0.00000000E+00  0.00000000E+00
  0.00000000E+00  0.00000000E+00  0.00000000E+00
  0.00000000E+00  0.00000000E+00  0.00000000E+00
  0.00000000E+00  0.00000000E+00  0.00000000E+00
  0.00000000E+00  0.00000000E+00  0.00000000E+00
  0.00000000E+00  0.00000000E+00  0.00000000E+00
  0.00000000E+00  0.00000000E+00  0.00000000E+00
  0.00000000E+00  0.00000000E+00  0.00000000E+00
  0.00000000E+00  0.00000000E+00  0.00000000E+00
  0.00000000E+00  0.00000000E+00  0.00000000E+00
  0.00000000E+00  0.00000000E+00  0.00000000E+00
  0.00000000E+00  0.00000000E+00  0.00000000E+00
  0.00000000E+00  0.00000000E+00  0.00000000E+00
  0.00000000E+00  0.00000000E+00  0.00000000E+00
  0.00000000E+00  0.00000000E+00  0.00000000E+00
  0.00000000E+00  0.00000000E+00  0.00000000E+00
  0.00000000E+00  0.00000000E+00  0.00000000E+00
  0.00000000E+00  0.00000000E+00  0.00000000E+00
  0.00000000E+00  0.00000000E+00  0.00000000E+00
  0.00000000E+00  0.00000000E+00  0.00000000E+00
  0.00000000E+00  0.00000000E+00  0.00000000E+00
  0.00000000E+00  0.00000000E+00  0.00000000E+00
  0.00000000E+00  0.00000000E+00  0.00000000E+00
  0.00000000E+00  0.00000000E+00  0.00000000E+00
