cos4n                                   
   1.00000000000000     
     7.7782000000000000    0.0000000000000000    0.0000000000000000
    -3.8890500000000001    6.7360319999999998    0.0000000000000000
     0.0000010000000000    0.0000010000000000   26.1140000000000008
   C    Ce   H    O 
     1    16     1    33
Selective dynamics
Direct
  0.8857779830416252  0.1658977163767194  0.5042905892234274   T   T   T
  0.3333400000000269  0.6666600000000003  0.0304000000000002   F   F   F
  0.3333400000000016  0.1666600000000008  0.0304000000000002   F   F   F
  0.8333399999999945  0.1666600000000008  0.0304000000000002   F   F   F
  0.8333399999999997  0.6666600000000003  0.0304000000000002   F   F   F
  0.0000000000000000  0.0000000000000000  0.1520000000000010   F   F   F
  0.0000000000000098  0.5000000000000000  0.1520000000000010   F   F   F
  0.5000000000000000  0.5000000000000000  0.1520000000000010   F   F   F
  0.4999999999999997  0.0000000000000000  0.1520000000000010   F   F   F
  0.1677181032105809  0.8351720912538313  0.2720811952374923   T   T   T
  0.6660989759162531  0.8317925280973373  0.2732450671503850   T   T   T
  0.6662336138027495  0.3328837397122764  0.2737899279353638   T   T   T
  0.1669585405673463  0.3328961109935688  0.2738678909955274   T   T   T
  0.3272043747016095  0.6713155051710554  0.3924113010050809   T   T   T
  0.8448867632097105  0.6709607809300258  0.3924353648867477   T   T   T
  0.3305341982373799  0.1599139865087413  0.3957281504003218   T   T   T
  0.8310348096813378  0.1629163040744742  0.3953670368122099   T   T   T
  0.5136879134686304  0.5261137790091147  0.4774289677799008   T   T   T
  0.6666600000000003  0.8333399999999997  0.0000000000000000   F   F   F
  0.6666600000000005  0.3333399999999999  0.0000000000000000   F   F   F
  0.1666600000000003  0.3333399999999999  0.0000000000000000   F   F   F
  0.1666600000000003  0.8333399999999997  0.0000000000000000   F   F   F
  0.4999999999999997  0.0000000000000000  0.0608000000000004   F   F   F
  0.0000000000000000  0.0000000000000000  0.0608000000000004   F   F   F
  0.0000000000000094  0.5000000000000000  0.0608000000000004   F   F   F
  0.5000000000000324  0.5000000000000000  0.0608000000000004   F   F   F
  0.8333399999999997  0.1666600000000003  0.1216000000000008   F   F   F
  0.3333399999999926  0.1666600000000003  0.1216000000000008   F   F   F
  0.3333400000000013  0.6666600000000018  0.1216000000000008   F   F   F
  0.8333400000000024  0.6666600000000018  0.1216000000000008   F   F   F
  0.1666600000000003  0.3333399999999999  0.1824000000000012   F   F   F
  0.6666600000000005  0.3333399999999999  0.1824000000000012   F   F   F
  0.6666600000000003  0.8333399999999997  0.1824000000000012   F   F   F
  0.1666600000000002  0.8333399999999997  0.1824000000000012   F   F   F
  0.5028621837601883  0.0014921175920193  0.2425899254835551   T   T   T
  0.9988746080101579  0.0015220505387859  0.2426161436931693   T   T   T
  0.9982155327846833  0.4961130661835862  0.2429514977962175   T   T   T
  0.5002056604951891  0.5002604648051909  0.2432277070265235   T   T   T
  0.3330588799461112  0.1656562787052611  0.3025172838615012   T   T   T
  0.8374559239987227  0.6683114207236566  0.3027735293110895   T   T   T
  0.3315675601586759  0.6687651559460179  0.3028282365673451   T   T   T
  0.8314108493245922  0.1625547254866460  0.3063339424931334   T   T   T
  0.1641218326896494  0.8284197209554222  0.3624759486608471   T   T   T
  0.6570576526636309  0.8122792572774711  0.3628375916260687   T   T   T
  0.1727313092156120  0.3443332515683701  0.3649607714219079   T   T   T
  0.6721133856794168  0.3438850045006371  0.3649535294869743   T   T   T
  0.5079757521369438  0.9870189126190496  0.4246609396449721   T   T   T
  0.9810992870688989  0.9873757002582908  0.4251844855039009   T   T   T
  0.0047845603387701  0.5090441945833475  0.4259870304497279   T   T   T
  0.5057956046705809  0.5108032415356242  0.4403869172467814   T   T   T
  0.9364017841703912  0.1581361253802588  0.5449457905017124   T   T   T
 
  0.00000000E+00  0.00000000E+00  0.00000000E+00
  0.00000000E+00  0.00000000E+00  0.00000000E+00
  0.00000000E+00  0.00000000E+00  0.00000000E+00
  0.00000000E+00  0.00000000E+00  0.00000000E+00
  0.00000000E+00  0.00000000E+00  0.00000000E+00
  0.00000000E+00  0.00000000E+00  0.00000000E+00
  0.00000000E+00  0.00000000E+00  0.00000000E+00
  0.00000000E+00  0.00000000E+00  0.00000000E+00
  0.00000000E+00  0.00000000E+00  0.00000000E+00
  0.00000000E+00  0.00000000E+00  0.00000000E+00
  0.00000000E+00  0.00000000E+00  0.00000000E+00
  0.00000000E+00  0.00000000E+00  0.00000000E+00
  0.00000000E+00  0.00000000E+00  0.00000000E+00
  0.00000000E+00  0.00000000E+00  0.00000000E+00
  0.00000000E+00  0.00000000E+00  0.00000000E+00
  0.00000000E+00  0.00000000E+00  0.00000000E+00
  0.00000000E+00  0.00000000E+00  0.00000000E+00
  0.00000000E+00  0.00000000E+00  0.00000000E+00
  0.00000000E+00  0.00000000E+00  0.00000000E+00
  0.00000000E+00  0.00000000E+00  0.00000000E+00
  0.00000000E+00  0.00000000E+00  0.00000000E+00
  0.00000000E+00  0.00000000E+00  0.00000000E+00
  0.00000000E+00  0.00000000E+00  0.00000000E+00
  0.00000000E+00  0.00000000E+00  0.00000000E+00
  0.00000000E+00  0.00000000E+00  0.00000000E+00
  0.00000000E+00  0.00000000E+00  0.00000000E+00
  0.00000000E+00  0.00000000E+00  0.00000000E+00
  0.00000000E+00  0.00000000E+00  0.00000000E+00
  0.00000000E+00  0.00000000E+00  0.00000000E+00
  0.00000000E+00  0.00000000E+00  0.00000000E+00
  0.00000000E+00  0.00000000E+00  0.00000000E+00
  0.00000000E+00  0.00000000E+00  0.00000000E+00
  0.00000000E+00  0.00000000E+00  0.00000000E+00
  0.00000000E+00  0.00000000E+00  0.00000000E+00
  0.00000000E+00  0.00000000E+00  0.00000000E+00
  0.00000000E+00  0.00000000E+00  0.00000000E+00
  0.00000000E+00  0.00000000E+00  0.00000000E+00
  0.00000000E+00  0.00000000E+00  0.00000000E+00
  0.00000000E+00  0.00000000E+00  0.00000000E+00
  0.00000000E+00  0.00000000E+00  0.00000000E+00
  0.00000000E+00  0.00000000E+00  0.00000000E+00
  0.00000000E+00  0.00000000E+00  0.00000000E+00
  0.00000000E+00  0.00000000E+00  0.00000000E+00
  0.00000000E+00  0.00000000E+00  0.00000000E+00
  0.00000000E+00  0.00000000E+00  0.00000000E+00
  0.00000000E+00  0.00000000E+00  0.00000000E+00
  0.00000000E+00  0.00000000E+00  0.00000000E+00
  0.00000000E+00  0.00000000E+00  0.00000000E+00
  0.00000000E+00  0.00000000E+00  0.00000000E+00
  0.00000000E+00  0.00000000E+00  0.00000000E+00
  0.00000000E+00  0.00000000E+00  0.00000000E+00
