4n                                      
   1.00000000000000     
     7.7781500000000001    0.0000000000000000    0.0000000000000000
    -3.8890750000000001    6.7360755000000001    0.0000000000000000
     0.0000002500000000    0.0000002500000000   26.1140000000000008
   C    Ce   H    O 
     1    16     1    33
Selective dynamics
Direct
  0.3714196597326959  0.6397222895652618  0.5024897219871317   T   T   T
  0.3219528813497802  0.6424853270192157  0.0304000000000002   F   F   F
  0.8219528813497802  0.6424853270192157  0.0304000000000002   F   F   F
  0.3219528813497803  0.1424853270192159  0.0304000000000002   F   F   F
  0.8219528813497802  0.1424853270192159  0.0304000000000002   F   F   F
  0.4886128998444476  0.4758253405582664  0.1520000000000010   F   F   F
  0.4886128998444474  0.9758253405582662  0.1520000000000010   F   F   F
  0.9886128998444477  0.9758253405582662  0.1520000000000010   F   F   F
  0.9886128998444477  0.4758253405582664  0.1520000000000010   F   F   F
  0.6571954724014608  0.3108364341260266  0.2716143642093481   T   T   T
  0.1554286184704058  0.8090161983379685  0.2732860692307262   T   T   T
  0.6561445876707614  0.8085807657054555  0.2733767101639449   T   T   T
  0.1556048973847636  0.3077833070269501  0.2728616460533009   T   T   T
  0.3358344272533484  0.1475164950396799  0.3917601328747400   T   T   T
  0.3208299282643258  0.6387459977639500  0.3942965123726043   T   T   T
  0.8207039272046267  0.6358842617594342  0.3947163827373533   T   T   T
  0.8175572790815168  0.1473468113622965  0.3917113269381063   T   T   T
  1.0002649342172381  0.9977371358055829  0.4762648303964796   T   T   T
  0.1552728767261016  0.3091653236344740  0.0000000000000000   F   F   F
  0.6552728767261016  0.8091653236344740  0.0000000000000000   F   F   F
  0.6552728767261027  0.3091653236344740  0.0000000000000000   F   F   F
  0.1552728767261012  0.8091653236344740  0.0000000000000000   F   F   F
  0.9886128859734598  0.4758253304039854  0.0608000000000004   F   F   F
  0.4886128859734598  0.4758253304039854  0.0608000000000004   F   F   F
  0.4886128859734457  0.9758253304039858  0.0608000000000004   F   F   F
  0.9886128859734455  0.9758253304039858  0.0608000000000004   F   F   F
  0.8219528952208465  0.6424853371734970  0.1216000000000008   F   F   F
  0.8219528952207895  0.1424853371734969  0.1216000000000008   F   F   F
  0.3219528952207895  0.1424853371734969  0.1216000000000008   F   F   F
  0.3219528952208038  0.6424853371734970  0.1216000000000008   F   F   F
  0.1552729044681124  0.8091653439430362  0.1824000000000012   F   F   F
  0.6552729044681130  0.8091653439430362  0.1824000000000012   F   F   F
  0.1552729044681130  0.3091653439430360  0.1824000000000012   F   F   F
  0.6552729044681130  0.3091653439430360  0.1824000000000012   F   F   F
  0.4882486836404611  0.4772031521336234  0.2422712867609587   T   T   T
  0.9913715172423061  0.4769453987946348  0.2422698665539870   T   T   T
  0.9894930173006310  0.9762100526414081  0.2428183288562576   T   T   T
  0.4878515967213359  0.9728636266686344  0.2427480832141206   T   T   T
  0.3268390588856416  0.1450580462675728  0.3023782058969575   T   T   T
  0.8228084446737642  0.6422500707622594  0.3018479173804637   T   T   T
  0.8220365649726189  0.1443910414843669  0.3024769180395847   T   T   T
  0.3203682983846626  0.6382093868374109  0.3053801699717871   T   T   T
  0.6550065891340452  0.3043480812928107  0.3616658715060919   T   T   T
  0.1631592228682732  0.8206152541808092  0.3640234994886255   T   T   T
  0.6606259628391149  0.8193931582412854  0.3641035152161108   T   T   T
  0.1476005463004072  0.2897949606148513  0.3624939592620720   T   T   T
  0.4721128899542358  0.4623455348728756  0.4243538615008546   T   T   T
  0.4952938154115367  0.9851780570178276  0.4253271644852971   T   T   T
  0.9943679753537674  0.9852456486937208  0.4391825928461008   T   T   T
  0.9982303679136462  0.4641238912842650  0.4238310969895031   T   T   T
  0.4193735218163536  0.6346029826373430  0.5436393538846643   T   T   T
 
  0.00000000E+00  0.00000000E+00  0.00000000E+00
  0.00000000E+00  0.00000000E+00  0.00000000E+00
  0.00000000E+00  0.00000000E+00  0.00000000E+00
  0.00000000E+00  0.00000000E+00  0.00000000E+00
  0.00000000E+00  0.00000000E+00  0.00000000E+00
  0.00000000E+00  0.00000000E+00  0.00000000E+00
  0.00000000E+00  0.00000000E+00  0.00000000E+00
  0.00000000E+00  0.00000000E+00  0.00000000E+00
  0.00000000E+00  0.00000000E+00  0.00000000E+00
  0.00000000E+00  0.00000000E+00  0.00000000E+00
  0.00000000E+00  0.00000000E+00  0.00000000E+00
  0.00000000E+00  0.00000000E+00  0.00000000E+00
  0.00000000E+00  0.00000000E+00  0.00000000E+00
  0.00000000E+00  0.00000000E+00  0.00000000E+00
  0.00000000E+00  0.00000000E+00  0.00000000E+00
  0.00000000E+00  0.00000000E+00  0.00000000E+00
  0.00000000E+00  0.00000000E+00  0.00000000E+00
  0.00000000E+00  0.00000000E+00  0.00000000E+00
  0.00000000E+00  0.00000000E+00  0.00000000E+00
  0.00000000E+00  0.00000000E+00  0.00000000E+00
  0.00000000E+00  0.00000000E+00  0.00000000E+00
  0.00000000E+00  0.00000000E+00  0.00000000E+00
  0.00000000E+00  0.00000000E+00  0.00000000E+00
  0.00000000E+00  0.00000000E+00  0.00000000E+00
  0.00000000E+00  0.00000000E+00  0.00000000E+00
  0.00000000E+00  0.00000000E+00  0.00000000E+00
  0.00000000E+00  0.00000000E+00  0.00000000E+00
  0.00000000E+00  0.00000000E+00  0.00000000E+00
  0.00000000E+00  0.00000000E+00  0.00000000E+00
  0.00000000E+00  0.00000000E+00  0.00000000E+00
  0.00000000E+00  0.00000000E+00  0.00000000E+00
  0.00000000E+00  0.00000000E+00  0.00000000E+00
  0.00000000E+00  0.00000000E+00  0.00000000E+00
  0.00000000E+00  0.00000000E+00  0.00000000E+00
  0.00000000E+00  0.00000000E+00  0.00000000E+00
  0.00000000E+00  0.00000000E+00  0.00000000E+00
  0.00000000E+00  0.00000000E+00  0.00000000E+00
  0.00000000E+00  0.00000000E+00  0.00000000E+00
  0.00000000E+00  0.00000000E+00  0.00000000E+00
  0.00000000E+00  0.00000000E+00  0.00000000E+00
  0.00000000E+00  0.00000000E+00  0.00000000E+00
  0.00000000E+00  0.00000000E+00  0.00000000E+00
  0.00000000E+00  0.00000000E+00  0.00000000E+00
  0.00000000E+00  0.00000000E+00  0.00000000E+00
  0.00000000E+00  0.00000000E+00  0.00000000E+00
  0.00000000E+00  0.00000000E+00  0.00000000E+00
  0.00000000E+00  0.00000000E+00  0.00000000E+00
  0.00000000E+00  0.00000000E+00  0.00000000E+00
  0.00000000E+00  0.00000000E+00  0.00000000E+00
  0.00000000E+00  0.00000000E+00  0.00000000E+00
  0.00000000E+00  0.00000000E+00  0.00000000E+00
