C    Ce   H    O                        
   1.00000000000000     
    10.2896000000000001    0.0000000000000000    0.0000000000000000
     5.1448000000000000    8.9110549999999993    0.0000000000000000
     0.0000010000000000    0.0000000000000000   26.1140000000000008
   C    Ce   H    O 
     1    28     1    57
Selective dynamics
Direct
  0.8011186978139537  0.4946551546341942  0.4887194207688166   T   T   T
  0.6666700000000033  0.6666700000000034  0.0303999999999853   F   F   F
  0.0952399999999950  0.3809499999999986  0.0303999999999853   F   F   F
  0.2380999999999995  0.9523799999999963  0.0303999999999853   F   F   F
  0.5238099999999903  0.0952399999999969  0.0303999999999853   F   F   F
  0.8095200000000063  0.2380999999999993  0.0303999999999853   F   F   F
  0.9523800000000123  0.8095199999999881  0.0303999999999853   F   F   F
  0.3809499999999985  0.5238099999999974  0.0303999999999853   F   F   F
  0.0000000000000000  0.0000000000000000  0.1519999999999267   F   F   F
  0.5714300000000080  0.2857100000000010  0.1519999999999267   F   F   F
  0.7142899999999982  0.8571400000000011  0.1519999999999267   F   F   F
  0.1428599999999989  0.5714299999999994  0.1519999999999267   F   F   F
  0.4285700000000006  0.7142899999999983  0.1519999999999267   F   F   F
  0.8571400000000012  0.4285700000000006  0.1519999999999267   F   F   F
  0.2857100000000017  0.1428599999999989  0.1519999999999267   F   F   F
  0.4759145110186627  0.9037592445935632  0.2729791186360336   T   T   T
  0.7604055987606587  0.0470050216118430  0.2727936728315843   T   T   T
  0.1884558736541122  0.7640811149970793  0.2730452954089294   T   T   T
  0.3346919705062483  0.3336766430310324  0.2740746616055331   T   T   T
  0.0488228563787672  0.1921623793952224  0.2738424062888924   T   T   T
  0.6197438448193605  0.4764230061652555  0.2747996182459451   T   T   T
  0.9049318929148805  0.6174556731028107  0.2753776797887873   T   T   T
  0.8164176728069914  0.2229043647465642  0.3923332865772821   T   T   T
  0.6581645092468239  0.6769024935200733  0.3974535701410133   T   T   T
  0.5220300680849226  0.0860389686678150  0.3944429381258824   T   T   T
  0.3718850066777226  0.5395993904728350  0.3948734526779397   T   T   T
  0.2348648516902762  0.9552247918803534  0.3946758994699400   T   T   T
  0.9502756716674113  0.8082103693268968  0.3948725568897049   T   T   T
  0.1126417312994035  0.3796413000639567  0.3974129780536426   T   T   T
  0.5800038900768647  0.2748590279395859  0.4778982051086013   T   T   T
  0.9047600000000062  0.6190499999999974  0.0000000000000000   F   F   F
  0.3333299999999966  0.3333299999999966  0.0000000000000000   F   F   F
  0.1904800000000009  0.7618999999999971  0.0000000000000000   F   F   F
  0.6190500000000003  0.4761900000000026  0.0000000000000000   F   F   F
  0.0476200000000020  0.1904800000000009  0.0000000000000000   F   F   F
  0.4761900000000035  0.9047600000000015  0.0000000000000000   F   F   F
  0.7618999999999970  0.0476200000000014  0.0000000000000000   F   F   F
  0.8571400000000012  0.4285700000000006  0.0607999999999779   F   F   F
  0.2857100000000017  0.1428599999999989  0.0607999999999779   F   F   F
  0.5714299999999997  0.2857100000000010  0.0607999999999779   F   F   F
  0.7142899999999982  0.8571400000000011  0.0607999999999779   F   F   F
  0.1428599999999945  0.5714299999999994  0.0607999999999779   F   F   F
  0.4285700000000006  0.7142899999999983  0.0607999999999779   F   F   F
  0.0000000000000000  0.0000000000000000  0.0607999999999779   F   F   F
  0.8095199999993328  0.2380999999999993  0.1215999999999486   F   F   F
  0.2381000000000037  0.9523799999999963  0.1215999999999486   F   F   F
  0.5238099999999974  0.0952399999999969  0.1215999999999486   F   F   F
  0.6666699999999895  0.6666700000000034  0.1215999999999486   F   F   F
  0.0952399999999950  0.3809499999999986  0.1215999999999486   F   F   F
  0.9523799999999846  0.8095199999999881  0.1215999999999486   F   F   F
  0.3809499999999986  0.5238099999999974  0.1215999999999486   F   F   F
  0.4761900000000105  0.9047600000000015  0.1823999999999114   F   F   F
  0.7619000000000126  0.0476200000000014  0.1823999999999114   F   F   F
  0.1904800000000009  0.7618999999999971  0.1823999999999114   F   F   F
  0.6190500000000014  0.4761900000000026  0.1823999999999114   F   F   F
  0.0476200000000020  0.1904800000000009  0.1823999999999114   F   F   F
  0.9047600000000173  0.6190499999999974  0.1823999999999114   F   F   F
  0.3333299999999966  0.3333299999999966  0.1823999999999114   F   F   F
  0.2863062479132441  0.1427368962035882  0.2427998494994361   T   T   T
  0.7145278808042316  0.8560468713160099  0.2432566216275854   T   T   T
  0.4265142585877182  0.7156684115493772  0.2432002466021588   T   T   T
  0.5708407683257156  0.2866768726446499  0.2437271671179440   T   T   T
  0.9993734938506100  0.9994395395316574  0.2429480974809061   T   T   T
  0.1429123598879414  0.5727676010161413  0.2439109880413928   T   T   T
  0.8589426467847802  0.4275647615752702  0.2439958169279650   T   T   T
  0.8117291741428376  0.2352583610389465  0.3037365818138142   T   T   T
  0.5227004904507463  0.0933983844718461  0.3039367325673695   T   T   T
  0.6655922085732339  0.6632863493371945  0.3036523769595450   T   T   T
  0.1026495588148427  0.3782560030679957  0.3044385990977755   T   T   T
  0.3818614856189207  0.5283443884471886  0.3053419234335225   T   T   T
  0.2337562637253734  0.9582927009228449  0.3049052036353902   T   T   T
  0.9471118360106116  0.8116285291617211  0.3054317406850525   T   T   T
  0.1846695024386324  0.7682160530071525  0.3617811454472691   T   T   T
  0.4720493436909513  0.9058788625303540  0.3626738468880608   T   T   T
  0.7534648113479530  0.0570087222965665  0.3636969506943227   T   T   T
  0.3513373992661992  0.3318673441984996  0.3664421392708323   T   T   T
  0.9059669080776783  0.6172591519441275  0.3665993915531258   T   T   T
  0.0374947043797603  0.1982001757187859  0.3668611229238411   T   T   T
  0.6269740796222043  0.4598890917236627  0.3688553114297758   T   T   T
  0.9946546705527879  0.0001356563731477  0.4246202655564358   T   T   T
  0.1488075152958874  0.5863506967470264  0.4271573371894714   T   T   T
  0.4077080916494928  0.7232745681439530  0.4258708956498509   T   T   T
  0.2994628426357235  0.1266917376505587  0.4265943146298296   T   T   T
  0.7132183201201252  0.8714495778695156  0.4262238131168833   T   T   T
  0.8662554374396756  0.4075400163644517  0.4498730127500343   T   T   T
  0.5749071875631774  0.2792484033952748  0.4406448014134552   T   T   T
  0.8100952147254292  0.4813406284916923  0.5346670232559119   T   T   T
 
  0.00000000E+00  0.00000000E+00  0.00000000E+00
  0.00000000E+00  0.00000000E+00  0.00000000E+00
  0.00000000E+00  0.00000000E+00  0.00000000E+00
  0.00000000E+00  0.00000000E+00  0.00000000E+00
  0.00000000E+00  0.00000000E+00  0.00000000E+00
  0.00000000E+00  0.00000000E+00  0.00000000E+00
  0.00000000E+00  0.00000000E+00  0.00000000E+00
  0.00000000E+00  0.00000000E+00  0.00000000E+00
  0.00000000E+00  0.00000000E+00  0.00000000E+00
  0.00000000E+00  0.00000000E+00  0.00000000E+00
  0.00000000E+00  0.00000000E+00  0.00000000E+00
  0.00000000E+00  0.00000000E+00  0.00000000E+00
  0.00000000E+00  0.00000000E+00  0.00000000E+00
  0.00000000E+00  0.00000000E+00  0.00000000E+00
  0.00000000E+00  0.00000000E+00  0.00000000E+00
  0.00000000E+00  0.00000000E+00  0.00000000E+00
  0.00000000E+00  0.00000000E+00  0.00000000E+00
  0.00000000E+00  0.00000000E+00  0.00000000E+00
  0.00000000E+00  0.00000000E+00  0.00000000E+00
  0.00000000E+00  0.00000000E+00  0.00000000E+00
  0.00000000E+00  0.00000000E+00  0.00000000E+00
  0.00000000E+00  0.00000000E+00  0.00000000E+00
  0.00000000E+00  0.00000000E+00  0.00000000E+00
  0.00000000E+00  0.00000000E+00  0.00000000E+00
  0.00000000E+00  0.00000000E+00  0.00000000E+00
  0.00000000E+00  0.00000000E+00  0.00000000E+00
  0.00000000E+00  0.00000000E+00  0.00000000E+00
  0.00000000E+00  0.00000000E+00  0.00000000E+00
  0.00000000E+00  0.00000000E+00  0.00000000E+00
  0.00000000E+00  0.00000000E+00  0.00000000E+00
  0.00000000E+00  0.00000000E+00  0.00000000E+00
  0.00000000E+00  0.00000000E+00  0.00000000E+00
  0.00000000E+00  0.00000000E+00  0.00000000E+00
  0.00000000E+00  0.00000000E+00  0.00000000E+00
  0.00000000E+00  0.00000000E+00  0.00000000E+00
  0.00000000E+00  0.00000000E+00  0.00000000E+00
  0.00000000E+00  0.00000000E+00  0.00000000E+00
  0.00000000E+00  0.00000000E+00  0.00000000E+00
  0.00000000E+00  0.00000000E+00  0.00000000E+00
  0.00000000E+00  0.00000000E+00  0.00000000E+00
  0.00000000E+00  0.00000000E+00  0.00000000E+00
  0.00000000E+00  0.00000000E+00  0.00000000E+00
  0.00000000E+00  0.00000000E+00  0.00000000E+00
  0.00000000E+00  0.00000000E+00  0.00000000E+00
  0.00000000E+00  0.00000000E+00  0.00000000E+00
  0.00000000E+00  0.00000000E+00  0.00000000E+00
  0.00000000E+00  0.00000000E+00  0.00000000E+00
  0.00000000E+00  0.00000000E+00  0.00000000E+00
  0.00000000E+00  0.00000000E+00  0.00000000E+00
  0.00000000E+00  0.00000000E+00  0.00000000E+00
  0.00000000E+00  0.00000000E+00  0.00000000E+00
  0.00000000E+00  0.00000000E+00  0.00000000E+00
  0.00000000E+00  0.00000000E+00  0.00000000E+00
  0.00000000E+00  0.00000000E+00  0.00000000E+00
  0.00000000E+00  0.00000000E+00  0.00000000E+00
  0.00000000E+00  0.00000000E+00  0.00000000E+00
  0.00000000E+00  0.00000000E+00  0.00000000E+00
  0.00000000E+00  0.00000000E+00  0.00000000E+00
  0.00000000E+00  0.00000000E+00  0.00000000E+00
  0.00000000E+00  0.00000000E+00  0.00000000E+00
  0.00000000E+00  0.00000000E+00  0.00000000E+00
  0.00000000E+00  0.00000000E+00  0.00000000E+00
  0.00000000E+00  0.00000000E+00  0.00000000E+00
  0.00000000E+00  0.00000000E+00  0.00000000E+00
  0.00000000E+00  0.00000000E+00  0.00000000E+00
  0.00000000E+00  0.00000000E+00  0.00000000E+00
  0.00000000E+00  0.00000000E+00  0.00000000E+00
  0.00000000E+00  0.00000000E+00  0.00000000E+00
  0.00000000E+00  0.00000000E+00  0.00000000E+00
  0.00000000E+00  0.00000000E+00  0.00000000E+00
  0.00000000E+00  0.00000000E+00  0.00000000E+00
  0.00000000E+00  0.00000000E+00  0.00000000E+00
  0.00000000E+00  0.00000000E+00  0.00000000E+00
  0.00000000E+00  0.00000000E+00  0.00000000E+00
  0.00000000E+00  0.00000000E+00  0.00000000E+00
  0.00000000E+00  0.00000000E+00  0.00000000E+00
  0.00000000E+00  0.00000000E+00  0.00000000E+00
  0.00000000E+00  0.00000000E+00  0.00000000E+00
  0.00000000E+00  0.00000000E+00  0.00000000E+00
  0.00000000E+00  0.00000000E+00  0.00000000E+00
  0.00000000E+00  0.00000000E+00  0.00000000E+00
  0.00000000E+00  0.00000000E+00  0.00000000E+00
  0.00000000E+00  0.00000000E+00  0.00000000E+00
  0.00000000E+00  0.00000000E+00  0.00000000E+00
  0.00000000E+00  0.00000000E+00  0.00000000E+00
  0.00000000E+00  0.00000000E+00  0.00000000E+00
  0.00000000E+00  0.00000000E+00  0.00000000E+00
