4n                                      
   1.00000000000000     
     7.7781500000000001    0.0000000000000000    0.0000000000000000
    -3.8890750000000001    6.7360755000000001    0.0000000000000000
     0.0000002500000000    0.0000002500000000   26.1140000000000008
   C    Ce   H    O 
     1    16     1    33
Selective dynamics
Direct
  0.4531631767748686  0.5540840990337558  0.4875405803345522   T   T   T
  0.3354075990760990  0.1786006229050300  0.0304000000000002   F   F   F
  0.8354075990760990  0.1786006229050300  0.0304000000000002   F   F   F
  0.3354075990760980  0.6786006229050301  0.0304000000000002   F   F   F
  0.8354075990761013  0.6786006229050301  0.0304000000000002   F   F   F
  0.5020676175707663  0.5119406364440812  0.1520000000000010   F   F   F
  0.0020676175707515  0.5119406364440812  0.1520000000000010   F   F   F
  0.5020676175707669  0.0119406364440804  0.1520000000000010   F   F   F
  0.0020676175708372  0.0119406364440804  0.1520000000000010   F   F   F
  0.1670584864237855  0.8421489870484347  0.2717176162959198   T   T   T
  0.6686349943871220  0.3461185232715200  0.2719266330249733   T   T   T
  0.1693713393973198  0.3438810743209705  0.2736180778507875   T   T   T
  0.6681027683006877  0.8441412849071765  0.2741282261645359   T   T   T
  0.3383601650874756  0.1643259144695265  0.3909968823201201   T   T   T
  0.8275620748953103  0.1825152880466886  0.3939351358926484   T   T   T
  0.3267166183638735  0.6807436279143517  0.3956671750232588   T   T   T
  0.8399473541217358  0.6740245138869961  0.3940069573758082   T   T   T
  1.0092201121743956  1.0179953946418938  0.4778347078802435   T   T   T
  0.1687275944524136  0.3452806195202882  0.0000000000000000   F   F   F
  0.6687275944524131  0.8452806195202882  0.0000000000000000   F   F   F
  0.6687275944524131  0.3452806195202882  0.0000000000000000   F   F   F
  0.1687275944524008  0.8452806195202882  0.0000000000000000   F   F   F
  0.0020676036997572  0.5119406262898494  0.0608000000000004   F   F   F
  0.5020676036998282  0.5119406262898494  0.0608000000000004   F   F   F
  0.5020676036997571  0.0119406262897996  0.0608000000000004   F   F   F
  0.0020676036997570  0.0119406262897996  0.0608000000000004   F   F   F
  0.8354076129471257  0.1786006330593143  0.1216000000000008   F   F   F
  0.3354076129471129  0.1786006330593143  0.1216000000000008   F   F   F
  0.3354076129471082  0.6786006330593111  0.1216000000000008   F   F   F
  0.8354076129471163  0.6786006330593111  0.1216000000000008   F   F   F
  0.1687276221944387  0.8452806398288644  0.1824000000000012   F   F   F
  0.6687276221944529  0.8452806398288644  0.1824000000000012   F   F   F
  0.1687276221944388  0.3452806398288504  0.1824000000000012   F   F   F
  0.6687276221944535  0.3452806398288504  0.1824000000000012   F   F   F
  0.0021892172034708  0.5093999605136262  0.2419892640433011   T   T   T
  0.5043706598987079  0.0099798723435004  0.2426292686764612   T   T   T
 -0.0002950170650231  0.0129232211484597  0.2430462695085274   T   T   T
  0.5004322347051224  0.5115805724959357  0.2429776084073884   T   T   T
  0.8362490246015190  0.6766093565539713  0.3011805624295761   T   T   T
  0.3350693818185360  0.1719332551864804  0.3013388816998962   T   T   T
  0.3311076334907859  0.6747542373840683  0.3035032064490577   T   T   T
  0.8365973218920497  0.1847061638580206  0.3053501911054987   T   T   T
  0.1650013195880516  0.8516300946655104  0.3639368646475247   T   T   T
  0.6529002130760161  0.3442945054494368  0.3626354355551267   T   T   T
  0.6763035666720916  0.8509731081797424  0.3656342857799332   T   T   T
  0.1755608634414234  0.3252472374558996  0.3657670720466700   T   T   T
  0.5043546501908934  0.0296648519338925  0.4256470414104608   T   T   T
  0.9850936643951068  0.4824586912306382  0.4249374492487623   T   T   T
  0.5001494707956058  0.4884088056215690  0.4472423604824213   T   T   T
  1.0049286779870956  1.0151324170732257  0.4405622789309610   T   T   T
  0.4579651990442245  0.5330041830872567  0.5330959441885520   T   T   T
 
  0.00000000E+00  0.00000000E+00  0.00000000E+00
  0.00000000E+00  0.00000000E+00  0.00000000E+00
  0.00000000E+00  0.00000000E+00  0.00000000E+00
  0.00000000E+00  0.00000000E+00  0.00000000E+00
  0.00000000E+00  0.00000000E+00  0.00000000E+00
  0.00000000E+00  0.00000000E+00  0.00000000E+00
  0.00000000E+00  0.00000000E+00  0.00000000E+00
  0.00000000E+00  0.00000000E+00  0.00000000E+00
  0.00000000E+00  0.00000000E+00  0.00000000E+00
  0.00000000E+00  0.00000000E+00  0.00000000E+00
  0.00000000E+00  0.00000000E+00  0.00000000E+00
  0.00000000E+00  0.00000000E+00  0.00000000E+00
  0.00000000E+00  0.00000000E+00  0.00000000E+00
  0.00000000E+00  0.00000000E+00  0.00000000E+00
  0.00000000E+00  0.00000000E+00  0.00000000E+00
  0.00000000E+00  0.00000000E+00  0.00000000E+00
  0.00000000E+00  0.00000000E+00  0.00000000E+00
  0.00000000E+00  0.00000000E+00  0.00000000E+00
  0.00000000E+00  0.00000000E+00  0.00000000E+00
  0.00000000E+00  0.00000000E+00  0.00000000E+00
  0.00000000E+00  0.00000000E+00  0.00000000E+00
  0.00000000E+00  0.00000000E+00  0.00000000E+00
  0.00000000E+00  0.00000000E+00  0.00000000E+00
  0.00000000E+00  0.00000000E+00  0.00000000E+00
  0.00000000E+00  0.00000000E+00  0.00000000E+00
  0.00000000E+00  0.00000000E+00  0.00000000E+00
  0.00000000E+00  0.00000000E+00  0.00000000E+00
  0.00000000E+00  0.00000000E+00  0.00000000E+00
  0.00000000E+00  0.00000000E+00  0.00000000E+00
  0.00000000E+00  0.00000000E+00  0.00000000E+00
  0.00000000E+00  0.00000000E+00  0.00000000E+00
  0.00000000E+00  0.00000000E+00  0.00000000E+00
  0.00000000E+00  0.00000000E+00  0.00000000E+00
  0.00000000E+00  0.00000000E+00  0.00000000E+00
  0.00000000E+00  0.00000000E+00  0.00000000E+00
  0.00000000E+00  0.00000000E+00  0.00000000E+00
  0.00000000E+00  0.00000000E+00  0.00000000E+00
  0.00000000E+00  0.00000000E+00  0.00000000E+00
  0.00000000E+00  0.00000000E+00  0.00000000E+00
  0.00000000E+00  0.00000000E+00  0.00000000E+00
  0.00000000E+00  0.00000000E+00  0.00000000E+00
  0.00000000E+00  0.00000000E+00  0.00000000E+00
  0.00000000E+00  0.00000000E+00  0.00000000E+00
  0.00000000E+00  0.00000000E+00  0.00000000E+00
  0.00000000E+00  0.00000000E+00  0.00000000E+00
  0.00000000E+00  0.00000000E+00  0.00000000E+00
  0.00000000E+00  0.00000000E+00  0.00000000E+00
  0.00000000E+00  0.00000000E+00  0.00000000E+00
  0.00000000E+00  0.00000000E+00  0.00000000E+00
  0.00000000E+00  0.00000000E+00  0.00000000E+00
  0.00000000E+00  0.00000000E+00  0.00000000E+00
