ov7n                                    
   1.00000000000000     
    10.2896000000000001    0.0000000000000000    0.0000000000000000
     5.1448000000000000    8.9110549999999993    0.0000000000000000
     0.0000010000000000    0.0000000000000000   26.1140000000000008
   Ce   H    O 
    28     1    55
Selective dynamics
Direct
  0.6666700000000034  0.6666700000000034  0.0304000000000002   F   F   F
  0.0952399999999969  0.3809499999999986  0.0304000000000002   F   F   F
  0.2381000000000029  0.9523799999999980  0.0304000000000002   F   F   F
  0.5238099999999974  0.0952399999999969  0.0304000000000002   F   F   F
  0.8095199999999991  0.2381000000000029  0.0304000000000002   F   F   F
  0.9523799999999980  0.8095199999999991  0.0304000000000002   F   F   F
  0.3809499999999986  0.5238099999999974  0.0304000000000002   F   F   F
  0.8571400000000011  0.4285700000000006  0.1520000000000010   F   F   F
  0.2857100000000017  0.1428599999999989  0.1520000000000010   F   F   F
  0.0000000000000000  0.0000000000000000  0.1520000000000010   F   F   F
  0.5714299999999994  0.2857100000000017  0.1520000000000010   F   F   F
  0.7142899999999983  0.8571400000000011  0.1520000000000010   F   F   F
  0.1428599999999989  0.5714299999999994  0.1520000000000010   F   F   F
  0.4285700000000006  0.7142899999999983  0.1520000000000010   F   F   F
  0.1889156306283795  0.7633653925668398  0.2721816387045166   T   T   T
  0.4740792325315937  0.9057755904099523  0.2715321144922385   T   T   T
  0.9055551478503148  0.6169447405237136  0.2745292253096281   T   T   T
  0.3366425611028987  0.3330278931555313  0.2724752010163698   T   T   T
  0.0471174670699455  0.1921440030375194  0.2739460075656339   T   T   T
  0.7609081974996101  0.0458234259167511  0.2722178588047441   T   T   T
  0.6202234313176405  0.4759178614055415  0.2742304679504883   T   T   T
  0.3741525395642142  0.5416491344525340  0.3934912778092325   T   T   T
  0.5235236295176193  0.0842809623474281  0.3933311665723167   T   T   T
  0.9530608984719819  0.8052395299359674  0.3945075489765486   T   T   T
  0.1236320849605477  0.3758079724103069  0.3935633868079549   T   T   T
  0.2306279651678764  0.9563915455350127  0.3942914670679656   T   T   T
  0.6511977582999933  0.6849105709782464  0.3933004823311066   T   T   T
  0.8111815993227296  0.2191351025650121  0.3927234851315973   T   T   T
  0.5587180416956627  0.2770483689765300  0.4785133164059729   T   T   T
  0.9047600000000031  0.6190500000000014  0.0000000000000000   F   F   F
  0.3333299999999966  0.3333299999999966  0.0000000000000000   F   F   F
  0.1904800000000009  0.7618999999999971  0.0000000000000000   F   F   F
  0.6190500000000014  0.4761900000000026  0.0000000000000000   F   F   F
  0.0476200000000020  0.1904800000000009  0.0000000000000000   F   F   F
  0.4761900000000026  0.9047600000000031  0.0000000000000000   F   F   F
  0.7618999999999971  0.0476200000000020  0.0000000000000000   F   F   F
  0.8571400000000011  0.4285700000000006  0.0608000000000004   F   F   F
  0.2857100000000017  0.1428599999999989  0.0608000000000004   F   F   F
  0.5714299999999994  0.2857100000000017  0.0608000000000004   F   F   F
  0.7142899999999983  0.8571400000000011  0.0608000000000004   F   F   F
  0.1428599999999989  0.5714299999999994  0.0608000000000004   F   F   F
  0.4285700000000006  0.7142899999999983  0.0608000000000004   F   F   F
  0.0000000000000000  0.0000000000000000  0.0608000000000004   F   F   F
  0.8095199999999707  0.2381000000000029  0.1216000000000008   F   F   F
  0.2381000000000029  0.9523799999999980  0.1216000000000008   F   F   F
  0.5238099999999974  0.0952399999999969  0.1216000000000008   F   F   F
  0.6666700000000034  0.6666700000000034  0.1216000000000008   F   F   F
  0.0952399999999969  0.3809499999999986  0.1216000000000008   F   F   F
  0.9523799999999909  0.8095199999999991  0.1216000000000008   F   F   F
  0.3809499999999986  0.5238099999999974  0.1216000000000008   F   F   F
  0.4761900000000026  0.9047600000000031  0.1824000000000012   F   F   F
  0.7618999999999971  0.0476200000000020  0.1824000000000012   F   F   F
  0.1904800000000009  0.7618999999999971  0.1824000000000012   F   F   F
  0.6190500000000014  0.4761900000000026  0.1824000000000012   F   F   F
  0.0476200000000020  0.1904800000000009  0.1824000000000012   F   F   F
  0.9047600000000031  0.6190500000000014  0.1824000000000012   F   F   F
  0.3333299999999966  0.3333299999999966  0.1824000000000012   F   F   F
  0.9991775351498191  0.9982604571633686  0.2425453839963509   T   T   T
  0.4262596875323936  0.7164242041281739  0.2425355267554039   T   T   T
  0.2854097882460493  0.1427297200272761  0.2418734192288099   T   T   T
  0.1435242504955667  0.5724065003248455  0.2428398188985383   T   T   T
  0.7151529966482570  0.8557001854654658  0.2423639944048688   T   T   T
  0.8590540794461958  0.4281086011804760  0.2436226688467400   T   T   T
  0.5711122714846937  0.2863159334477174  0.2426586606598136   T   T   T
  0.8097216669516456  0.2361129976321052  0.3018069138222543   T   T   T
  0.3840532941979689  0.5269249220851648  0.3037563139607400   T   T   T
  0.2308166747702600  0.9602655960380773  0.3040930402802005   T   T   T
  0.5223245134084991  0.0933289755068785  0.3021957242352187   T   T   T
  0.9493159038167533  0.8060361735842889  0.3049379091793867   T   T   T
  0.6652503864185206  0.6660268077040925  0.3021229133325818   T   T   T
  0.1041359618563504  0.3783363929227406  0.3027695316765318   T   T   T
  0.1882924925368741  0.7650368968863219  0.3599769746965862   T   T   T
  0.9051847989556734  0.6100074734720806  0.3680213976677393   T   T   T
  0.4693218605970344  0.9084484531721415  0.3607106550785701   T   T   T
  0.0403931757750868  0.2007885087450845  0.3686871345846185   T   T   T
  0.3544330008345185  0.3308009830214331  0.3641253694022453   T   T   T
  0.7547264421880442  0.0467670067783459  0.3621790353828089   T   T   T
  0.6213642243909092  0.4714702260636230  0.3694193112813551   T   T   T
  0.1526671614087860  0.5834808108134979  0.4262533238083108   T   T   T
  0.3033506837653803  0.1269917897970743  0.4268721775593534   T   T   T
  0.7115680186226570  0.8694973508479080  0.4268736305276803   T   T   T
  0.4061571476377495  0.7277235101409261  0.4265771911524325   T   T   T
  0.0071146151120800  0.9811726375710705  0.4258911903326776   T   T   T
  0.5648814227363275  0.2815261502872772  0.4414371107122008   T   T   T
 
  0.00000000E+00  0.00000000E+00  0.00000000E+00
  0.00000000E+00  0.00000000E+00  0.00000000E+00
  0.00000000E+00  0.00000000E+00  0.00000000E+00
  0.00000000E+00  0.00000000E+00  0.00000000E+00
  0.00000000E+00  0.00000000E+00  0.00000000E+00
  0.00000000E+00  0.00000000E+00  0.00000000E+00
  0.00000000E+00  0.00000000E+00  0.00000000E+00
  0.00000000E+00  0.00000000E+00  0.00000000E+00
  0.00000000E+00  0.00000000E+00  0.00000000E+00
  0.00000000E+00  0.00000000E+00  0.00000000E+00
  0.00000000E+00  0.00000000E+00  0.00000000E+00
  0.00000000E+00  0.00000000E+00  0.00000000E+00
  0.00000000E+00  0.00000000E+00  0.00000000E+00
  0.00000000E+00  0.00000000E+00  0.00000000E+00
  0.00000000E+00  0.00000000E+00  0.00000000E+00
  0.00000000E+00  0.00000000E+00  0.00000000E+00
  0.00000000E+00  0.00000000E+00  0.00000000E+00
  0.00000000E+00  0.00000000E+00  0.00000000E+00
  0.00000000E+00  0.00000000E+00  0.00000000E+00
  0.00000000E+00  0.00000000E+00  0.00000000E+00
  0.00000000E+00  0.00000000E+00  0.00000000E+00
  0.00000000E+00  0.00000000E+00  0.00000000E+00
  0.00000000E+00  0.00000000E+00  0.00000000E+00
  0.00000000E+00  0.00000000E+00  0.00000000E+00
  0.00000000E+00  0.00000000E+00  0.00000000E+00
  0.00000000E+00  0.00000000E+00  0.00000000E+00
  0.00000000E+00  0.00000000E+00  0.00000000E+00
  0.00000000E+00  0.00000000E+00  0.00000000E+00
  0.00000000E+00  0.00000000E+00  0.00000000E+00
  0.00000000E+00  0.00000000E+00  0.00000000E+00
  0.00000000E+00  0.00000000E+00  0.00000000E+00
  0.00000000E+00  0.00000000E+00  0.00000000E+00
  0.00000000E+00  0.00000000E+00  0.00000000E+00
  0.00000000E+00  0.00000000E+00  0.00000000E+00
  0.00000000E+00  0.00000000E+00  0.00000000E+00
  0.00000000E+00  0.00000000E+00  0.00000000E+00
  0.00000000E+00  0.00000000E+00  0.00000000E+00
  0.00000000E+00  0.00000000E+00  0.00000000E+00
  0.00000000E+00  0.00000000E+00  0.00000000E+00
  0.00000000E+00  0.00000000E+00  0.00000000E+00
  0.00000000E+00  0.00000000E+00  0.00000000E+00
  0.00000000E+00  0.00000000E+00  0.00000000E+00
  0.00000000E+00  0.00000000E+00  0.00000000E+00
  0.00000000E+00  0.00000000E+00  0.00000000E+00
  0.00000000E+00  0.00000000E+00  0.00000000E+00
  0.00000000E+00  0.00000000E+00  0.00000000E+00
  0.00000000E+00  0.00000000E+00  0.00000000E+00
  0.00000000E+00  0.00000000E+00  0.00000000E+00
  0.00000000E+00  0.00000000E+00  0.00000000E+00
  0.00000000E+00  0.00000000E+00  0.00000000E+00
  0.00000000E+00  0.00000000E+00  0.00000000E+00
  0.00000000E+00  0.00000000E+00  0.00000000E+00
  0.00000000E+00  0.00000000E+00  0.00000000E+00
  0.00000000E+00  0.00000000E+00  0.00000000E+00
  0.00000000E+00  0.00000000E+00  0.00000000E+00
  0.00000000E+00  0.00000000E+00  0.00000000E+00
  0.00000000E+00  0.00000000E+00  0.00000000E+00
  0.00000000E+00  0.00000000E+00  0.00000000E+00
  0.00000000E+00  0.00000000E+00  0.00000000E+00
  0.00000000E+00  0.00000000E+00  0.00000000E+00
  0.00000000E+00  0.00000000E+00  0.00000000E+00
  0.00000000E+00  0.00000000E+00  0.00000000E+00
  0.00000000E+00  0.00000000E+00  0.00000000E+00
  0.00000000E+00  0.00000000E+00  0.00000000E+00
  0.00000000E+00  0.00000000E+00  0.00000000E+00
  0.00000000E+00  0.00000000E+00  0.00000000E+00
  0.00000000E+00  0.00000000E+00  0.00000000E+00
  0.00000000E+00  0.00000000E+00  0.00000000E+00
  0.00000000E+00  0.00000000E+00  0.00000000E+00
  0.00000000E+00  0.00000000E+00  0.00000000E+00
  0.00000000E+00  0.00000000E+00  0.00000000E+00
  0.00000000E+00  0.00000000E+00  0.00000000E+00
  0.00000000E+00  0.00000000E+00  0.00000000E+00
  0.00000000E+00  0.00000000E+00  0.00000000E+00
  0.00000000E+00  0.00000000E+00  0.00000000E+00
  0.00000000E+00  0.00000000E+00  0.00000000E+00
  0.00000000E+00  0.00000000E+00  0.00000000E+00
  0.00000000E+00  0.00000000E+00  0.00000000E+00
  0.00000000E+00  0.00000000E+00  0.00000000E+00
  0.00000000E+00  0.00000000E+00  0.00000000E+00
  0.00000000E+00  0.00000000E+00  0.00000000E+00
  0.00000000E+00  0.00000000E+00  0.00000000E+00
  0.00000000E+00  0.00000000E+00  0.00000000E+00
  0.00000000E+00  0.00000000E+00  0.00000000E+00
