12n                                     
   1.00000000000000     
    13.4721510000000002    0.0000000000000000    0.0000000000000000
     6.7360755000000001   11.6672250000000002    0.0000000000000000
     0.0000002500000000    0.0000002500000000   26.1140000000000008
   C    Ce   H    O 
     1    48     1    97
Selective dynamics
Direct
  0.1929240399419470  0.1392380828078374  0.5016681285260755   T   T   T
  0.6739312155779872  0.8307381917491123  0.0304000000000015   F   F   F
  0.6739312155779846  0.3307381917491409  0.0304000000000015   F   F   F
  0.0072645489113107  0.1640715250823988  0.0304000000000015   F   F   F
  0.1739312155779699  0.8307381917490857  0.0304000000000015   F   F   F
  0.5072645489113228  0.1640715250823845  0.0304000000000015   F   F   F
  0.1739312155779733  0.3307381917490835  0.0304000000000015   F   F   F
  0.8405978822446648  0.9974048584157678  0.0304000000000015   F   F   F
  0.0072645489112959  0.6640715250824486  0.0304000000000015   F   F   F
  0.3405978822446408  0.4974048584157338  0.0304000000000015   F   F   F
  0.8405978822446718  0.4974048584157338  0.0304000000000015   F   F   F
  0.5072645489113321  0.6640715250824557  0.0304000000000015   F   F   F
  0.3405978822446242  0.9974048584157825  0.0304000000000015   F   F   F
  0.1739378851057974  0.6640648662324793  0.1520000000000117   F   F   F
  0.1739378851057969  0.1640648662324900  0.1520000000000117   F   F   F
  0.8406045517724650  0.8307315328991507  0.1520000000000117   F   F   F
  0.3406045517724270  0.3307315328991507  0.1520000000000117   F   F   F
  0.0072712184391363  0.4973981995658150  0.1520000000000117   F   F   F
  0.5072712184391364  0.4973981995658150  0.1520000000000117   F   F   F
  0.8406045517724721  0.3307315328991436  0.1520000000000117   F   F   F
  0.6739378851058007  0.6640648662324793  0.1520000000000117   F   F   F
  0.3406045517724364  0.8307315328992076  0.1520000000000117   F   F   F
  0.5072712184391350  0.9973981995658190  0.1520000000000117   F   F   F
  0.0072712184391070  0.9973981995658650  0.1520000000000117   F   F   F
  0.6739378851057953  0.1640648662324900  0.1520000000000117   F   F   F
  0.1734196514848653  0.5005183079310462  0.2729001091563454   T   T   T
  0.3427724424921285  0.6629359947000200  0.2722027944390321   T   T   T
  0.5088870412989422  0.8287444027174409  0.2720239782668905   T   T   T
  0.8380604529413654  0.1631416947752577  0.2712478865528199   T   T   T
  0.5059826355478477  0.3311936244324827  0.2723576090343455   T   T   T
  0.6757779264436652  0.4963192707480689  0.2727791353607637   T   T   T
  0.0081530307258735  0.3318654191937207  0.2731024808702554   T   T   T
  0.6718547662685408  0.9970647532525427  0.2720356487223884   T   T   T
  0.1740294801873102  0.9970578001586871  0.2737756212658504   T   T   T
  0.8413843057649745  0.6654096825479667  0.2735092813055061   T   T   T
  0.3388880319646692  0.1651881602467122  0.2740383417383149   T   T   T
  0.0067338947750615  0.8314575227768163  0.2740771121944140   T   T   T
  0.6740721987350227  0.8307654715052715  0.3938112695680763   T   T   T
 -0.0104534576555561  0.1714734833151877  0.3881552802054695   T   T   T
  0.6701874890434549  0.3309212274248597  0.3928754273417766   T   T   T
  0.5127197269859642  0.6582616286584559  0.3933092478600995   T   T   T
  0.8406241476895939  0.5010542812906023  0.3947164440019731   T   T   T
  0.3446946926393822  0.4972360289816941  0.3934171591524878   T   T   T
  0.5042996822920641  0.1653318305729372  0.3936623391165840   T   T   T
  0.1848919917655964  0.8207889046209513  0.3940390459935281   T   T   T
  0.3556704100592364  0.9828905843682868  0.3919207040143155   T   T   T
  0.0048387049529523  0.6699275748031688  0.3969485524542586   T   T   T
  0.1751556592141106  0.3459388429996211  0.3927779839959184   T   T   T
  0.8288990139632985 -0.0029801343340174  0.3926115270027377   T   T   T
  0.9959274142731595  1.0018707580043584  0.4769452870818419   T   T   T
  0.3406112148627045  0.6640581897948793  0.0000000000000000   F   F   F
  0.1739445481960307  0.9973915231282269  0.0000000000000000   F   F   F
  0.8406112148626967  0.6640581897948935  0.0000000000000000   F   F   F
  0.1739445481960425  0.4973915231282031  0.0000000000000000   F   F   F
  0.3406112148627182  0.1640581897948614  0.0000000000000000   F   F   F
  0.0072778815293785  0.8307248564615345  0.0000000000000000   F   F   F
  0.5072778815293799  0.3307248564615364  0.0000000000000000   F   F   F
  0.5072778815293824  0.8307248564615345  0.0000000000000000   F   F   F
  0.8406112148627140  0.1640581897948686  0.0000000000000000   F   F   F
  0.6739445481960245  0.9973915231282269  0.0000000000000000   F   F   F
  0.6739445481960445  0.4973915231282031  0.0000000000000000   F   F   F
  0.0072778815293810  0.3307248564615364  0.0000000000000000   F   F   F
  0.1739378829599387  0.6640648603699451  0.0608000000000029   F   F   F
  0.0072712162932983  0.4973981937032522  0.0608000000000029   F   F   F
  0.1739378829599612  0.1640648603699440  0.0608000000000029   F   F   F
  0.8406045496266258  0.8307315270365976  0.0608000000000029   F   F   F
  0.3406045496266116  0.3307315270365834  0.0608000000000029   F   F   F
  0.3406045496266078  0.8307315270365767  0.0608000000000029   F   F   F
  0.5072712162932332  0.4973981937032655  0.0608000000000029   F   F   F
  0.8406045496266118  0.3307315270365692  0.0608000000000029   F   F   F
  0.6739378829599001  0.6640648603699557  0.0608000000000029   F   F   F
  0.6739378829599292  0.1640648603699155  0.0608000000000029   F   F   F
  0.5072712162932593  0.9973981937032670  0.0608000000000029   F   F   F
  0.0072712162932738  0.9973981937032670  0.0608000000000029   F   F   F
  0.6739312177238415  0.3307381976116517  0.1216000000000058   F   F   F
  0.0072645510571728  0.1640715309449783  0.1216000000000058   F   F   F
  0.6739312177238297  0.8307381976116535  0.1216000000000058   F   F   F
  0.1739312177237984  0.8307381976116535  0.1216000000000058   F   F   F
  0.3405978843904563  0.9974048642783986  0.1216000000000058   F   F   F
  0.5072645510571483  0.1640715309449881  0.1216000000000058   F   F   F
  0.5072645510571618  0.6640715309449874  0.1216000000000058   F   F   F
  0.3405978843904469  0.4974048642783424  0.1216000000000058   F   F   F
  0.0072645510571514  0.6640715309449804  0.1216000000000058   F   F   F
  0.1739312177238294  0.3307381976116588  0.1216000000000058   F   F   F
  0.8405978843904495  0.9974048642783605  0.1216000000000058   F   F   F
  0.8405978843905060  0.4974048642783063  0.1216000000000058   F   F   F
  0.3406112191544040  0.6640582015200424  0.1824000000000147   F   F   F
  0.3406112191544253  0.1640582015200139  0.1824000000000147   F   F   F
  0.0072778858210675  0.8307248681867304  0.1824000000000147   F   F   F
  0.1739445524877502  0.4973915348533715  0.1824000000000147   F   F   F
  0.5072778858210618  0.3307248681867066  0.1824000000000147   F   F   F
  0.6739445524877433  0.4973915348533555  0.1824000000000147   F   F   F
  0.5072778858210446  0.8307248681867251  0.1824000000000147   F   F   F
  0.1739445524877288  0.9973915348533923  0.1824000000000147   F   F   F
  0.8406112191543824  0.6640582015200495  0.1824000000000147   F   F   F
  0.8406112191544112  0.1640582015200209  0.1824000000000147   F   F   F
  0.0072778858210812  0.3307248681867066  0.1824000000000147   F   F   F
  0.6739445524877078  0.9973915348534017  0.1824000000000147   F   F   F
  0.1740130303430155  0.6664059066948894  0.2428927704307204   T   T   T
  0.5093835912653580  0.4959836088222282  0.2422733882123250   T   T   T
  0.3404895086869293  0.8300510536353629  0.2421368569201518   T   T   T
  0.0058937226682901  0.4994132621705693  0.2425127131125046   T   T   T
  0.8400474852843777  0.3317309465851692  0.2421040906275754   T   T   T
  0.3407882365964724  0.3307908432622930  0.2423557749203051   T   T   T
  0.5057669926120032  0.9983505037670108  0.2423441337794732   T   T   T
  0.6723822891575714  0.1644691116555630  0.2420936428436300   T   T   T
  0.0077298950102077  0.9961031329304298  0.2431145264241970   T   T   T
  0.6762704891364352  0.6620850312852180  0.2427529260430737   T   T   T
  0.1728925700523675  0.1638908611985546  0.2438742052750351   T   T   T
  0.8403472921196181  0.8311991761951935  0.2422974012994587   T   T   T
  0.1723274612481445  0.3354496933911610  0.3014105046607908   T   T   T
  0.6724885056192611  0.8327332624123230  0.3024823409428045   T   T   T
  0.0011002388594299  0.1654617614912831  0.3016263755171314   T   T   T
  0.8371937078179695  0.9971591341272734  0.3027151649975646   T   T   T
  0.0060581316944212  0.6686239941811853  0.3033125601029295   T   T   T
  0.3427901771706303  0.4968220321136605  0.3022813673297244   T   T   T
  0.5096964203306400  0.6618160929748996  0.3026272236459572   T   T   T
  0.1781128727784482  0.8314719635827723  0.3052638041766964   T   T   T
  0.6764496496468437  0.3283061492535271  0.3036800457264036   T   T   T
  0.3409992310254218  0.9933958404158215  0.3020630325167663   T   T   T
  0.8456957671526405  0.4937557244296754  0.3054725780499311   T   T   T
  0.5031390331830208  0.1655374127901104  0.3040755776977568   T   T   T
  0.5091746202613747  0.3307168879009681  0.3615091211509598   T   T   T
  0.3467726198859620  0.6591306339263132  0.3611959564148290   T   T   T
  0.8412208310867899  0.1567394546617051  0.3626887748414437   T   T   T
  0.1785471978075909  0.5038955346303486  0.3626636475534910   T   T   T
  0.5151663775080106  0.8216738493467510  0.3619466165737481   T   T   T
  0.6751377443197430  0.4952001256564468  0.3625452166496759   T   T   T
  0.0163317374963066  0.3155294674655076  0.3656414423236713   T   T   T
  0.6704269169927193  0.9995327763982728  0.3609918224064068   T   T   T
  0.3359800611924078  0.1644546510811081  0.3657023046212134   T   T   T
  0.0064511000259433  0.8445999700586870  0.3653860388652918   T   T   T
  0.1611362138113163  0.0108697417986709  0.3684900242257269   T   T   T
  0.8340273993299857  0.6690069036781460  0.3624984795027702   T   T   T
  0.8383515986795840  0.3249389390147344  0.4232439378719360   T   T   T
  0.6711543657454827  0.1642438666330180  0.4236389652427473   T   T   T
  0.5119684081794305  0.4935435860030626  0.4243618247385164   T   T   T
  0.3445022531551702  0.8174517259873876  0.4246016284067256   T   T   T
  0.1871976932281993  0.6678049502110577  0.4265858004573831   T   T   T
  0.5174026861274487  0.9940276194750784  0.4253771485693774   T   T   T
  0.3518682116955155  0.3329417493084247  0.4259744772324556   T   T   T
 -0.0072198343956037  0.5004238603459464  0.4261129209421327   T   T   T
  0.1667438629727487  0.1673619673959636  0.4583879697817565   T   T   T
  0.8274532552906457  0.8449413630247642  0.4261191743485538   T   T   T
  0.0019772418606063  1.0026917722283604  0.4398381788678979   T   T   T
  0.6752547692910281  0.6595847002280258  0.4255356759583447   T   T   T
  0.2200366468864651  0.1100783644072946  0.5437913643572966   T   T   T
 
  0.00000000E+00  0.00000000E+00  0.00000000E+00
  0.00000000E+00  0.00000000E+00  0.00000000E+00
  0.00000000E+00  0.00000000E+00  0.00000000E+00
  0.00000000E+00  0.00000000E+00  0.00000000E+00
  0.00000000E+00  0.00000000E+00  0.00000000E+00
  0.00000000E+00  0.00000000E+00  0.00000000E+00
  0.00000000E+00  0.00000000E+00  0.00000000E+00
  0.00000000E+00  0.00000000E+00  0.00000000E+00
  0.00000000E+00  0.00000000E+00  0.00000000E+00
  0.00000000E+00  0.00000000E+00  0.00000000E+00
  0.00000000E+00  0.00000000E+00  0.00000000E+00
  0.00000000E+00  0.00000000E+00  0.00000000E+00
  0.00000000E+00  0.00000000E+00  0.00000000E+00
  0.00000000E+00  0.00000000E+00  0.00000000E+00
  0.00000000E+00  0.00000000E+00  0.00000000E+00
  0.00000000E+00  0.00000000E+00  0.00000000E+00
  0.00000000E+00  0.00000000E+00  0.00000000E+00
  0.00000000E+00  0.00000000E+00  0.00000000E+00
  0.00000000E+00  0.00000000E+00  0.00000000E+00
  0.00000000E+00  0.00000000E+00  0.00000000E+00
  0.00000000E+00  0.00000000E+00  0.00000000E+00
  0.00000000E+00  0.00000000E+00  0.00000000E+00
  0.00000000E+00  0.00000000E+00  0.00000000E+00
  0.00000000E+00  0.00000000E+00  0.00000000E+00
  0.00000000E+00  0.00000000E+00  0.00000000E+00
  0.00000000E+00  0.00000000E+00  0.00000000E+00
  0.00000000E+00  0.00000000E+00  0.00000000E+00
  0.00000000E+00  0.00000000E+00  0.00000000E+00
  0.00000000E+00  0.00000000E+00  0.00000000E+00
  0.00000000E+00  0.00000000E+00  0.00000000E+00
  0.00000000E+00  0.00000000E+00  0.00000000E+00
  0.00000000E+00  0.00000000E+00  0.00000000E+00
  0.00000000E+00  0.00000000E+00  0.00000000E+00
  0.00000000E+00  0.00000000E+00  0.00000000E+00
  0.00000000E+00  0.00000000E+00  0.00000000E+00
  0.00000000E+00  0.00000000E+00  0.00000000E+00
  0.00000000E+00  0.00000000E+00  0.00000000E+00
  0.00000000E+00  0.00000000E+00  0.00000000E+00
  0.00000000E+00  0.00000000E+00  0.00000000E+00
  0.00000000E+00  0.00000000E+00  0.00000000E+00
  0.00000000E+00  0.00000000E+00  0.00000000E+00
  0.00000000E+00  0.00000000E+00  0.00000000E+00
  0.00000000E+00  0.00000000E+00  0.00000000E+00
  0.00000000E+00  0.00000000E+00  0.00000000E+00
  0.00000000E+00  0.00000000E+00  0.00000000E+00
  0.00000000E+00  0.00000000E+00  0.00000000E+00
  0.00000000E+00  0.00000000E+00  0.00000000E+00
  0.00000000E+00  0.00000000E+00  0.00000000E+00
  0.00000000E+00  0.00000000E+00  0.00000000E+00
  0.00000000E+00  0.00000000E+00  0.00000000E+00
  0.00000000E+00  0.00000000E+00  0.00000000E+00
  0.00000000E+00  0.00000000E+00  0.00000000E+00
  0.00000000E+00  0.00000000E+00  0.00000000E+00
  0.00000000E+00  0.00000000E+00  0.00000000E+00
  0.00000000E+00  0.00000000E+00  0.00000000E+00
  0.00000000E+00  0.00000000E+00  0.00000000E+00
  0.00000000E+00  0.00000000E+00  0.00000000E+00
  0.00000000E+00  0.00000000E+00  0.00000000E+00
  0.00000000E+00  0.00000000E+00  0.00000000E+00
  0.00000000E+00  0.00000000E+00  0.00000000E+00
  0.00000000E+00  0.00000000E+00  0.00000000E+00
  0.00000000E+00  0.00000000E+00  0.00000000E+00
  0.00000000E+00  0.00000000E+00  0.00000000E+00
  0.00000000E+00  0.00000000E+00  0.00000000E+00
  0.00000000E+00  0.00000000E+00  0.00000000E+00
  0.00000000E+00  0.00000000E+00  0.00000000E+00
  0.00000000E+00  0.00000000E+00  0.00000000E+00
  0.00000000E+00  0.00000000E+00  0.00000000E+00
  0.00000000E+00  0.00000000E+00  0.00000000E+00
  0.00000000E+00  0.00000000E+00  0.00000000E+00
  0.00000000E+00  0.00000000E+00  0.00000000E+00
  0.00000000E+00  0.00000000E+00  0.00000000E+00
  0.00000000E+00  0.00000000E+00  0.00000000E+00
  0.00000000E+00  0.00000000E+00  0.00000000E+00
  0.00000000E+00  0.00000000E+00  0.00000000E+00
  0.00000000E+00  0.00000000E+00  0.00000000E+00
  0.00000000E+00  0.00000000E+00  0.00000000E+00
  0.00000000E+00  0.00000000E+00  0.00000000E+00
  0.00000000E+00  0.00000000E+00  0.00000000E+00
  0.00000000E+00  0.00000000E+00  0.00000000E+00
  0.00000000E+00  0.00000000E+00  0.00000000E+00
  0.00000000E+00  0.00000000E+00  0.00000000E+00
  0.00000000E+00  0.00000000E+00  0.00000000E+00
  0.00000000E+00  0.00000000E+00  0.00000000E+00
  0.00000000E+00  0.00000000E+00  0.00000000E+00
  0.00000000E+00  0.00000000E+00  0.00000000E+00
  0.00000000E+00  0.00000000E+00  0.00000000E+00
  0.00000000E+00  0.00000000E+00  0.00000000E+00
  0.00000000E+00  0.00000000E+00  0.00000000E+00
  0.00000000E+00  0.00000000E+00  0.00000000E+00
  0.00000000E+00  0.00000000E+00  0.00000000E+00
  0.00000000E+00  0.00000000E+00  0.00000000E+00
  0.00000000E+00  0.00000000E+00  0.00000000E+00
  0.00000000E+00  0.00000000E+00  0.00000000E+00
  0.00000000E+00  0.00000000E+00  0.00000000E+00
  0.00000000E+00  0.00000000E+00  0.00000000E+00
  0.00000000E+00  0.00000000E+00  0.00000000E+00
  0.00000000E+00  0.00000000E+00  0.00000000E+00
  0.00000000E+00  0.00000000E+00  0.00000000E+00
  0.00000000E+00  0.00000000E+00  0.00000000E+00
  0.00000000E+00  0.00000000E+00  0.00000000E+00
  0.00000000E+00  0.00000000E+00  0.00000000E+00
  0.00000000E+00  0.00000000E+00  0.00000000E+00
  0.00000000E+00  0.00000000E+00  0.00000000E+00
  0.00000000E+00  0.00000000E+00  0.00000000E+00
  0.00000000E+00  0.00000000E+00  0.00000000E+00
  0.00000000E+00  0.00000000E+00  0.00000000E+00
  0.00000000E+00  0.00000000E+00  0.00000000E+00
  0.00000000E+00  0.00000000E+00  0.00000000E+00
  0.00000000E+00  0.00000000E+00  0.00000000E+00
  0.00000000E+00  0.00000000E+00  0.00000000E+00
  0.00000000E+00  0.00000000E+00  0.00000000E+00
  0.00000000E+00  0.00000000E+00  0.00000000E+00
  0.00000000E+00  0.00000000E+00  0.00000000E+00
  0.00000000E+00  0.00000000E+00  0.00000000E+00
  0.00000000E+00  0.00000000E+00  0.00000000E+00
  0.00000000E+00  0.00000000E+00  0.00000000E+00
  0.00000000E+00  0.00000000E+00  0.00000000E+00
  0.00000000E+00  0.00000000E+00  0.00000000E+00
  0.00000000E+00  0.00000000E+00  0.00000000E+00
  0.00000000E+00  0.00000000E+00  0.00000000E+00
  0.00000000E+00  0.00000000E+00  0.00000000E+00
  0.00000000E+00  0.00000000E+00  0.00000000E+00
  0.00000000E+00  0.00000000E+00  0.00000000E+00
  0.00000000E+00  0.00000000E+00  0.00000000E+00
  0.00000000E+00  0.00000000E+00  0.00000000E+00
  0.00000000E+00  0.00000000E+00  0.00000000E+00
  0.00000000E+00  0.00000000E+00  0.00000000E+00
  0.00000000E+00  0.00000000E+00  0.00000000E+00
  0.00000000E+00  0.00000000E+00  0.00000000E+00
  0.00000000E+00  0.00000000E+00  0.00000000E+00
  0.00000000E+00  0.00000000E+00  0.00000000E+00
  0.00000000E+00  0.00000000E+00  0.00000000E+00
  0.00000000E+00  0.00000000E+00  0.00000000E+00
  0.00000000E+00  0.00000000E+00  0.00000000E+00
  0.00000000E+00  0.00000000E+00  0.00000000E+00
  0.00000000E+00  0.00000000E+00  0.00000000E+00
  0.00000000E+00  0.00000000E+00  0.00000000E+00
  0.00000000E+00  0.00000000E+00  0.00000000E+00
  0.00000000E+00  0.00000000E+00  0.00000000E+00
  0.00000000E+00  0.00000000E+00  0.00000000E+00
  0.00000000E+00  0.00000000E+00  0.00000000E+00
  0.00000000E+00  0.00000000E+00  0.00000000E+00
  0.00000000E+00  0.00000000E+00  0.00000000E+00
  0.00000000E+00  0.00000000E+00  0.00000000E+00
  0.00000000E+00  0.00000000E+00  0.00000000E+00
  0.00000000E+00  0.00000000E+00  0.00000000E+00
