3n                                      
   1.00000000000000     
     6.7360755000000001    0.0000000000000000    0.0000000000000000
     3.3680377500000001    5.8336125000000001    0.0000000000000000
     0.0000002500000000    0.0000002500000000   26.1140000000000008
   C    Ce   H    O 
     1    12     1    25
Selective dynamics
Direct
  0.4355651289973115  0.2331402355501307  0.4873709233544373   T   T   T
  0.0145290978226444  0.3281430501647767  0.0304000000000011   F   F   F
  0.3478624311559442  0.6614763834981722  0.0304000000000011   F   F   F
  0.6811957644893137  0.9948097168314886  0.0304000000000011   F   F   F
  0.3478757702115848  0.3281297324649806  0.1520000000000085   F   F   F
  0.6812091035448482  0.6614630657982943  0.1520000000000085   F   F   F
  0.0145424368782409  0.9947963991316300  0.1520000000000085   F   F   F
  0.0151308404843806  0.6630172940286690  0.2726982649354733   T   T   T
  0.3482736171114790  0.9954848972353788  0.2730132342094844   T   T   T
  0.6793565087236804  0.3285650884055002  0.2727279649322145   T   T   T
 -0.0081753403506989  0.3443551093856279  0.3916166119799619   T   T   T
  0.6922731393393149  0.9760098600883348  0.3949476738077086   T   T   T
  0.3592079596297380  0.6703516604252158  0.3949705841541337   T   T   T
  0.9995654383982685  1.0153979041179524  0.4779903122378524   T   T   T
  0.3478890963920836  0.9947830462564090  0.0000000000000000   F   F   F
  0.6812224297254327  0.3281163795897094  0.0000000000000000   F   F   F
  0.0145557630587659  0.6614497129230600  0.0000000000000000   F   F   F
  0.3478757659198981  0.3281297207398815  0.0608000000000022   F   F   F
  0.6812090992532305  0.6614630540731739  0.0608000000000022   F   F   F
  0.0145424325865310  0.9947963874065225  0.0608000000000022   F   F   F
  0.0145291021143051  0.3281430618899603  0.1216000000000044   F   F   F
  0.6811957687808637  0.9948097285567098  0.1216000000000044   F   F   F
  0.3478624354476587  0.6614763952233119  0.1216000000000044   F   F   F
  0.6812224383088303  0.3281164030400307  0.1824000000000062   F   F   F
  0.3478891049754831  0.9947830697067352  0.1824000000000062   F   F   F
  0.0145557716421509  0.6614497363734003  0.1824000000000062   F   F   F
  0.6817468202498450  0.6607961828525594  0.2417813074496800   T   T   T
  0.0143647136573508  0.9955984147069888  0.2428051016998598   T   T   T
  0.3468410712301269  0.3292233872497363  0.2431476555816079   T   T   T
  0.3529697071997474  0.6666467997314902  0.3027179986563102   T   T   T
  0.6821000151319500  0.9870928496546082  0.3023229566461746   T   T   T
  0.0062986027330717  0.3340944509251983  0.3027944686424761   T   T   T
  0.0296412237156090  0.6474117466342989  0.3648377355415545   T   T   T
  0.6865685270492609  0.3175716349898704  0.3643217706071669   T   T   T
  0.3274284742300553  0.0212424159072880  0.3669442351873234   T   T   T
  0.7026672131998107  0.6382955480285178  0.4275284682845996   T   T   T
  0.3196757491677013  0.3483741644098946  0.4476547909686980   T   T   T
  0.0148607340518893  1.0074557022802288  0.4408547145595123   T   T   T
  0.4090995040489554  0.2525440349705758  0.5331031456107851   T   T   T
 
  0.00000000E+00  0.00000000E+00  0.00000000E+00
  0.00000000E+00  0.00000000E+00  0.00000000E+00
  0.00000000E+00  0.00000000E+00  0.00000000E+00
  0.00000000E+00  0.00000000E+00  0.00000000E+00
  0.00000000E+00  0.00000000E+00  0.00000000E+00
  0.00000000E+00  0.00000000E+00  0.00000000E+00
  0.00000000E+00  0.00000000E+00  0.00000000E+00
  0.00000000E+00  0.00000000E+00  0.00000000E+00
  0.00000000E+00  0.00000000E+00  0.00000000E+00
  0.00000000E+00  0.00000000E+00  0.00000000E+00
  0.00000000E+00  0.00000000E+00  0.00000000E+00
  0.00000000E+00  0.00000000E+00  0.00000000E+00
  0.00000000E+00  0.00000000E+00  0.00000000E+00
  0.00000000E+00  0.00000000E+00  0.00000000E+00
  0.00000000E+00  0.00000000E+00  0.00000000E+00
  0.00000000E+00  0.00000000E+00  0.00000000E+00
  0.00000000E+00  0.00000000E+00  0.00000000E+00
  0.00000000E+00  0.00000000E+00  0.00000000E+00
  0.00000000E+00  0.00000000E+00  0.00000000E+00
  0.00000000E+00  0.00000000E+00  0.00000000E+00
  0.00000000E+00  0.00000000E+00  0.00000000E+00
  0.00000000E+00  0.00000000E+00  0.00000000E+00
  0.00000000E+00  0.00000000E+00  0.00000000E+00
  0.00000000E+00  0.00000000E+00  0.00000000E+00
  0.00000000E+00  0.00000000E+00  0.00000000E+00
  0.00000000E+00  0.00000000E+00  0.00000000E+00
  0.00000000E+00  0.00000000E+00  0.00000000E+00
  0.00000000E+00  0.00000000E+00  0.00000000E+00
  0.00000000E+00  0.00000000E+00  0.00000000E+00
  0.00000000E+00  0.00000000E+00  0.00000000E+00
  0.00000000E+00  0.00000000E+00  0.00000000E+00
  0.00000000E+00  0.00000000E+00  0.00000000E+00
  0.00000000E+00  0.00000000E+00  0.00000000E+00
  0.00000000E+00  0.00000000E+00  0.00000000E+00
  0.00000000E+00  0.00000000E+00  0.00000000E+00
  0.00000000E+00  0.00000000E+00  0.00000000E+00
  0.00000000E+00  0.00000000E+00  0.00000000E+00
  0.00000000E+00  0.00000000E+00  0.00000000E+00
  0.00000000E+00  0.00000000E+00  0.00000000E+00
