ov12n                                   
   1.00000000000000     
    13.4722000000000008    0.0000000000000000    0.0000000000000000
     6.7361000000000004   11.6672670000000007    0.0000000000000000
     0.0000010000000000    0.0000000000000000   26.1140000000000008
   Ce   H    O 
    48     1    95
Selective dynamics
Direct
  0.5000000000000355  0.8333300000000108  0.0304000000000002   F   F   F
  0.3333300000000108  0.1666700000000034  0.0304000000000002   F   F   F
  0.9999999999999929  0.8333300000000108  0.0304000000000002   F   F   F
  0.6666700000000176  0.5000000000000000  0.0304000000000002   F   F   F
  0.0000000000000000  0.3333299999999966  0.0304000000000002   F   F   F
  0.6666700000000461  0.0000000000000000  0.0304000000000002   F   F   F
  0.3333300000000321  0.6666700000000034  0.0304000000000002   F   F   F
  0.1666700000000034  0.0000000000000000  0.0304000000000002   F   F   F
  0.5000000000000426  0.3333299999999966  0.0304000000000002   F   F   F
  0.8333300000000605  0.6666700000000034  0.0304000000000002   F   F   F
  0.1666700000000034  0.5000000000000000  0.0304000000000002   F   F   F
  0.8333300000000463  0.1666700000000034  0.0304000000000002   F   F   F
  0.3333299999999966  0.3333299999999966  0.1520000000000010   F   F   F
  0.6666700000000603  0.6666700000000034  0.1520000000000010   F   F   F
  0.5000000000000071  0.0000000000000000  0.1520000000000010   F   F   F
  0.1666700000000034  0.6666700000000034  0.1520000000000010   F   F   F
  0.8333300000000534  0.3333299999999966  0.1520000000000010   F   F   F
  0.1666700000000105  0.1666700000000034  0.1520000000000010   F   F   F
  0.5000000000000071  0.5000000000000000  0.1520000000000010   F   F   F
  0.8333299999999824  0.8333300000000108  0.1520000000000010   F   F   F
  0.0000000000000071  0.5000000000000000  0.1520000000000010   F   F   F
  0.6666700000000105  0.1666700000000034  0.1520000000000010   F   F   F
  0.3333300000000037  0.8333300000000108  0.1520000000000010   F   F   F
  0.0000000000000000  0.0000000000000000  0.1520000000000010   F   F   F
  0.4996190522075707  0.1674532966206144  0.2743924112236726   T   T   T
  0.1661196358998751  0.8317595829452031  0.2720923441047702   T   T   T
  0.6680655150336179  0.3338904971838588  0.2722535112282074   T   T   T
  0.9971031962171111  0.6692181741605410  0.2710429868434971   T   T   T
  0.8336534389315702  0.0014905351595829  0.2725879688980513   T   T   T
  0.3337477966085558  0.4980720647537993  0.2741036377145747   T   T   T
  0.5006705499605673  0.6657269898129030  0.2727959852891146   T   T   T
  0.6655683167437232  0.8341573765646615  0.2724798898475385   T   T   T
  0.8340431070465613  0.5005472391851669  0.2732290755905140   T   T   T
  0.3330434428087727  0.9986542837668821  0.2726118806582178   T   T   T
  0.1670240122980218  0.3331917035522807  0.2744403659719268   T   T   T
  0.0017200904199370  0.1666214202601211  0.2739760109429383   T   T   T
  0.1661917854113213  0.9879359338316220  0.3923685381735211   T   T   T
  0.3406424809928552  0.1494775303698930  0.3934194773658035   T   T   T
  0.6689869002841036  0.9997398313135264  0.3939056112921904   T   T   T
  0.3346855187582634  0.6637466836529669  0.3943604545236497   T   T   T
  0.5167659332754226  0.3318771093589490  0.3936671659627464   T   T   T
  0.9959940122044415  0.8372319539439772  0.3928297695820007   T   T   T
  0.6672742166227934  0.5020977884130318  0.3934299911414385   T   T   T
  0.8273903658844119  0.6722028370120654  0.3931014137894806   T   T   T
  0.5024321156233711  0.8295439414955794  0.3935037423146355   T   T   T
  0.8369636220561034  0.1667934601791927  0.3938800524871553   T   T   T
  0.1467639604678226  0.5201927016547359  0.3910258320768065   T   T   T
  0.9946166816505908  0.3408148654041057  0.3973656915702790   T   T   T
  0.1686835767018096  0.1448055416675658  0.4788495146483385   T   T   T
  0.0000000000000000  0.1666700000000034  0.0000000000000000   F   F   F
  0.3333299999999966  0.5000000000000000  0.0000000000000000   F   F   F
  0.6666700000000105  0.8333300000000108  0.0000000000000000   F   F   F
  0.3333299999999966  0.0000000000000000  0.0000000000000000   F   F   F
  0.5000000000000071  0.1666700000000034  0.0000000000000000   F   F   F
  0.1666700000000034  0.8333300000000108  0.0000000000000000   F   F   F
  0.8333300000000037  0.5000000000000000  0.0000000000000000   F   F   F
  0.0000000000000071  0.6666700000000034  0.0000000000000000   F   F   F
  0.1666700000000034  0.3333299999999966  0.0000000000000000   F   F   F
  0.8333299999999966  0.0000000000000000  0.0000000000000000   F   F   F
  0.5000000000000000  0.6666700000000034  0.0000000000000000   F   F   F
  0.6666700000000461  0.3333299999999966  0.0000000000000000   F   F   F
  0.0000000000000071  0.5000000000000000  0.0608000000000004   F   F   F
  0.6666700000000105  0.1666700000000034  0.0608000000000004   F   F   F
  0.3333299999999895  0.8333300000000108  0.0608000000000004   F   F   F
  0.0000000000000000  0.0000000000000000  0.0608000000000004   F   F   F
  0.3333299999999966  0.3333299999999966  0.0608000000000004   F   F   F
  0.6666700000000674  0.6666700000000034  0.0608000000000004   F   F   F
  0.5000000000000071  0.0000000000000000  0.0608000000000004   F   F   F
  0.1666700000000034  0.6666700000000034  0.0608000000000004   F   F   F
  0.8333300000000463  0.3333299999999966  0.0608000000000004   F   F   F
  0.1666700000000105  0.1666700000000034  0.0608000000000004   F   F   F
  0.5000000000000000  0.5000000000000000  0.0608000000000004   F   F   F
  0.8333300000000676  0.8333300000000108  0.0608000000000004   F   F   F
  0.3333300000000108  0.1666700000000034  0.1216000000000008   F   F   F
  0.0000000000000000  0.8333300000000108  0.1216000000000008   F   F   F
  0.6666700000000034  0.5000000000000000  0.1216000000000008   F   F   F
  0.1666700000000176  0.5000000000000000  0.1216000000000008   F   F   F
  0.8333299999999966  0.1666700000000034  0.1216000000000008   F   F   F
  0.5000000000000000  0.8333300000000108  0.1216000000000008   F   F   F
  0.1666700000000034  0.0000000000000000  0.1216000000000008   F   F   F
  0.0000000000000000  0.3333299999999966  0.1216000000000008   F   F   F
  0.5000000000000000  0.3333299999999966  0.1216000000000008   F   F   F
  0.8333300000000250  0.6666700000000034  0.1216000000000008   F   F   F
  0.6666700000000034  0.0000000000000000  0.1216000000000008   F   F   F
  0.3333299999999966  0.6666700000000034  0.1216000000000008   F   F   F
  0.0000000000000000  0.1666700000000034  0.1824000000000012   F   F   F
  0.3333299999999966  0.5000000000000000  0.1824000000000012   F   F   F
  0.6666700000000390  0.8333300000000108  0.1824000000000012   F   F   F
  0.3333299999999966  0.0000000000000000  0.1824000000000012   F   F   F
  0.0000000000000071  0.6666700000000034  0.1824000000000012   F   F   F
  0.6666700000000674  0.3333299999999966  0.1824000000000012   F   F   F
  0.1666700000000034  0.3333299999999966  0.1824000000000012   F   F   F
  0.8333300000000534  0.0000000000000000  0.1824000000000012   F   F   F
  0.5000000000000497  0.6666700000000034  0.1824000000000012   F   F   F
  0.5000000000000000  0.1666700000000034  0.1824000000000012   F   F   F
  0.1666700000000034  0.8333300000000108  0.1824000000000012   F   F   F
  0.8333300000000605  0.5000000000000000  0.1824000000000012   F   F   F
  0.4992917960791772  0.5009129775004908  0.2423172515008929   T   T   T
  0.8315566380100918  0.8354110572742215  0.2422325697853012   T   T   T
  0.4999223291939856  0.0006309008570895  0.2425760692452030   T   T   T
  0.3337035887462463  0.8307572134486492  0.2428541892588427   T   T   T
  0.0002765105122151  0.0004502318672550  0.2422230654241417   T   T   T
  0.1675970832581442  0.6656406713929144  0.2423155701874720   T   T   T
  0.6671837207229743  0.1667160045670926  0.2428767270646901   T   T   T
  0.3320827049368233  0.3338375191372123  0.2438821882822282   T   T   T
  0.0003282186581188  0.4997777620731938  0.2421605574229631   T   T   T
  0.8353928234156740  0.3334278141290881  0.2430821474294191   T   T   T
  0.6659625965224265  0.6672747626108944  0.2425330389587899   T   T   T
  0.1664130101729882  0.1664495186207517  0.2430613666818999   T   T   T
  0.9999153899626663  0.8344414315195081  0.3019839054614337   T   T   T
  0.5007999818697613  0.3349733058629880  0.3020721191381668   T   T   T
  0.0052222741770791  0.3346720091318005  0.3049615936334860   T   T   T
  0.1670986763627909  0.9962175655187622  0.3028058151473800   T   T   T
  0.3321438420546770  0.1645865485072662  0.3028203124742319   T   T   T
  0.6642347622949316  0.0031747668070992  0.3045829040899264   T   T   T
  0.3340132120308112  0.6597904309156277  0.3057107826471110   T   T   T
  0.6664101035457435  0.5010498312699880  0.3028738550245293   T   T   T
  0.8330759322024264  0.6671299816635425  0.3021559560685816   T   T   T
  0.8366736375103656  0.1666562231069761  0.3037877399362472   T   T   T
  0.1612077527879876  0.5038154857163448  0.3033381119725647   T   T   T
  0.4988728233965318  0.8349751542929837  0.3034205719611762   T   T   T
  0.9926945517527983  0.6755324797230315  0.3603561911937803   T   T   T
  0.6727896004273433  0.3334742761244129  0.3610753329434715   T   T   T
  0.1661247515347384  0.8299401207562269  0.3616685801743387   T   T   T
  0.4973967092575293  0.1699617263343995  0.3671865420832461   T   T   T
  0.8362614098819989  0.9989692284871765  0.3612448930636418   T   T   T
  0.3267014088436611  0.4913467294100258  0.3696630182097707   T   T   T
  0.4996049331424075  0.6687043833242043  0.3615711126359145   T   T   T
  0.6676895938235532  0.8320021626659155  0.3610241396410956   T   T   T
  0.8282187728678281  0.5060571510416949  0.3627819674737509   T   T   T
  0.3280157325805533  0.9957211936366974  0.3637219099297226   T   T   T
  0.1808527070319883  0.3382977649414585  0.3735273147001408   T   T   T
  0.0089469922016008  0.1606194108562136  0.3643575151498908   T   T   T
  0.3300329997278268  0.8272809450485568  0.4243300850303271   T   T   T
  0.5116098994620160  0.9834917320932277  0.4252430073375990   T   T   T
  0.6834836570602505  0.1561892700669105  0.4252638494584957   T   T   T
  0.1575190318083131  0.6732341644550530  0.4242762622795553   T   T   T
  0.8300101801079620  0.8379041087011458  0.4236091928728101   T   T   T
  0.5013929694043497  0.5109214766750085  0.4245659479834458   T   T   T
  0.0029485885331653  0.9953837173870497  0.4243922680427801   T   T   T
  0.6635714999218933  0.6701295283138222  0.4245463060816803   T   T   T
  0.8254270136573751  0.3344578106491340  0.4253735914927148   T   T   T
  0.9899136615170576  0.5214599551086039  0.4257113249544560   T   T   T
  0.1683137365399077  0.1524085988727748  0.4417919497804803   T   T   T
 
  0.00000000E+00  0.00000000E+00  0.00000000E+00
  0.00000000E+00  0.00000000E+00  0.00000000E+00
  0.00000000E+00  0.00000000E+00  0.00000000E+00
  0.00000000E+00  0.00000000E+00  0.00000000E+00
  0.00000000E+00  0.00000000E+00  0.00000000E+00
  0.00000000E+00  0.00000000E+00  0.00000000E+00
  0.00000000E+00  0.00000000E+00  0.00000000E+00
  0.00000000E+00  0.00000000E+00  0.00000000E+00
  0.00000000E+00  0.00000000E+00  0.00000000E+00
  0.00000000E+00  0.00000000E+00  0.00000000E+00
  0.00000000E+00  0.00000000E+00  0.00000000E+00
  0.00000000E+00  0.00000000E+00  0.00000000E+00
  0.00000000E+00  0.00000000E+00  0.00000000E+00
  0.00000000E+00  0.00000000E+00  0.00000000E+00
  0.00000000E+00  0.00000000E+00  0.00000000E+00
  0.00000000E+00  0.00000000E+00  0.00000000E+00
  0.00000000E+00  0.00000000E+00  0.00000000E+00
  0.00000000E+00  0.00000000E+00  0.00000000E+00
  0.00000000E+00  0.00000000E+00  0.00000000E+00
  0.00000000E+00  0.00000000E+00  0.00000000E+00
  0.00000000E+00  0.00000000E+00  0.00000000E+00
  0.00000000E+00  0.00000000E+00  0.00000000E+00
  0.00000000E+00  0.00000000E+00  0.00000000E+00
  0.00000000E+00  0.00000000E+00  0.00000000E+00
  0.00000000E+00  0.00000000E+00  0.00000000E+00
  0.00000000E+00  0.00000000E+00  0.00000000E+00
  0.00000000E+00  0.00000000E+00  0.00000000E+00
  0.00000000E+00  0.00000000E+00  0.00000000E+00
  0.00000000E+00  0.00000000E+00  0.00000000E+00
  0.00000000E+00  0.00000000E+00  0.00000000E+00
  0.00000000E+00  0.00000000E+00  0.00000000E+00
  0.00000000E+00  0.00000000E+00  0.00000000E+00
  0.00000000E+00  0.00000000E+00  0.00000000E+00
  0.00000000E+00  0.00000000E+00  0.00000000E+00
  0.00000000E+00  0.00000000E+00  0.00000000E+00
  0.00000000E+00  0.00000000E+00  0.00000000E+00
  0.00000000E+00  0.00000000E+00  0.00000000E+00
  0.00000000E+00  0.00000000E+00  0.00000000E+00
  0.00000000E+00  0.00000000E+00  0.00000000E+00
  0.00000000E+00  0.00000000E+00  0.00000000E+00
  0.00000000E+00  0.00000000E+00  0.00000000E+00
  0.00000000E+00  0.00000000E+00  0.00000000E+00
  0.00000000E+00  0.00000000E+00  0.00000000E+00
  0.00000000E+00  0.00000000E+00  0.00000000E+00
  0.00000000E+00  0.00000000E+00  0.00000000E+00
  0.00000000E+00  0.00000000E+00  0.00000000E+00
  0.00000000E+00  0.00000000E+00  0.00000000E+00
  0.00000000E+00  0.00000000E+00  0.00000000E+00
  0.00000000E+00  0.00000000E+00  0.00000000E+00
  0.00000000E+00  0.00000000E+00  0.00000000E+00
  0.00000000E+00  0.00000000E+00  0.00000000E+00
  0.00000000E+00  0.00000000E+00  0.00000000E+00
  0.00000000E+00  0.00000000E+00  0.00000000E+00
  0.00000000E+00  0.00000000E+00  0.00000000E+00
  0.00000000E+00  0.00000000E+00  0.00000000E+00
  0.00000000E+00  0.00000000E+00  0.00000000E+00
  0.00000000E+00  0.00000000E+00  0.00000000E+00
  0.00000000E+00  0.00000000E+00  0.00000000E+00
  0.00000000E+00  0.00000000E+00  0.00000000E+00
  0.00000000E+00  0.00000000E+00  0.00000000E+00
  0.00000000E+00  0.00000000E+00  0.00000000E+00
  0.00000000E+00  0.00000000E+00  0.00000000E+00
  0.00000000E+00  0.00000000E+00  0.00000000E+00
  0.00000000E+00  0.00000000E+00  0.00000000E+00
  0.00000000E+00  0.00000000E+00  0.00000000E+00
  0.00000000E+00  0.00000000E+00  0.00000000E+00
  0.00000000E+00  0.00000000E+00  0.00000000E+00
  0.00000000E+00  0.00000000E+00  0.00000000E+00
  0.00000000E+00  0.00000000E+00  0.00000000E+00
  0.00000000E+00  0.00000000E+00  0.00000000E+00
  0.00000000E+00  0.00000000E+00  0.00000000E+00
  0.00000000E+00  0.00000000E+00  0.00000000E+00
  0.00000000E+00  0.00000000E+00  0.00000000E+00
  0.00000000E+00  0.00000000E+00  0.00000000E+00
  0.00000000E+00  0.00000000E+00  0.00000000E+00
  0.00000000E+00  0.00000000E+00  0.00000000E+00
  0.00000000E+00  0.00000000E+00  0.00000000E+00
  0.00000000E+00  0.00000000E+00  0.00000000E+00
  0.00000000E+00  0.00000000E+00  0.00000000E+00
  0.00000000E+00  0.00000000E+00  0.00000000E+00
  0.00000000E+00  0.00000000E+00  0.00000000E+00
  0.00000000E+00  0.00000000E+00  0.00000000E+00
  0.00000000E+00  0.00000000E+00  0.00000000E+00
  0.00000000E+00  0.00000000E+00  0.00000000E+00
  0.00000000E+00  0.00000000E+00  0.00000000E+00
  0.00000000E+00  0.00000000E+00  0.00000000E+00
  0.00000000E+00  0.00000000E+00  0.00000000E+00
  0.00000000E+00  0.00000000E+00  0.00000000E+00
  0.00000000E+00  0.00000000E+00  0.00000000E+00
  0.00000000E+00  0.00000000E+00  0.00000000E+00
  0.00000000E+00  0.00000000E+00  0.00000000E+00
  0.00000000E+00  0.00000000E+00  0.00000000E+00
  0.00000000E+00  0.00000000E+00  0.00000000E+00
  0.00000000E+00  0.00000000E+00  0.00000000E+00
  0.00000000E+00  0.00000000E+00  0.00000000E+00
  0.00000000E+00  0.00000000E+00  0.00000000E+00
  0.00000000E+00  0.00000000E+00  0.00000000E+00
  0.00000000E+00  0.00000000E+00  0.00000000E+00
  0.00000000E+00  0.00000000E+00  0.00000000E+00
  0.00000000E+00  0.00000000E+00  0.00000000E+00
  0.00000000E+00  0.00000000E+00  0.00000000E+00
  0.00000000E+00  0.00000000E+00  0.00000000E+00
  0.00000000E+00  0.00000000E+00  0.00000000E+00
  0.00000000E+00  0.00000000E+00  0.00000000E+00
  0.00000000E+00  0.00000000E+00  0.00000000E+00
  0.00000000E+00  0.00000000E+00  0.00000000E+00
  0.00000000E+00  0.00000000E+00  0.00000000E+00
  0.00000000E+00  0.00000000E+00  0.00000000E+00
  0.00000000E+00  0.00000000E+00  0.00000000E+00
  0.00000000E+00  0.00000000E+00  0.00000000E+00
  0.00000000E+00  0.00000000E+00  0.00000000E+00
  0.00000000E+00  0.00000000E+00  0.00000000E+00
  0.00000000E+00  0.00000000E+00  0.00000000E+00
  0.00000000E+00  0.00000000E+00  0.00000000E+00
  0.00000000E+00  0.00000000E+00  0.00000000E+00
  0.00000000E+00  0.00000000E+00  0.00000000E+00
  0.00000000E+00  0.00000000E+00  0.00000000E+00
  0.00000000E+00  0.00000000E+00  0.00000000E+00
  0.00000000E+00  0.00000000E+00  0.00000000E+00
  0.00000000E+00  0.00000000E+00  0.00000000E+00
  0.00000000E+00  0.00000000E+00  0.00000000E+00
  0.00000000E+00  0.00000000E+00  0.00000000E+00
  0.00000000E+00  0.00000000E+00  0.00000000E+00
  0.00000000E+00  0.00000000E+00  0.00000000E+00
  0.00000000E+00  0.00000000E+00  0.00000000E+00
  0.00000000E+00  0.00000000E+00  0.00000000E+00
  0.00000000E+00  0.00000000E+00  0.00000000E+00
  0.00000000E+00  0.00000000E+00  0.00000000E+00
  0.00000000E+00  0.00000000E+00  0.00000000E+00
  0.00000000E+00  0.00000000E+00  0.00000000E+00
  0.00000000E+00  0.00000000E+00  0.00000000E+00
  0.00000000E+00  0.00000000E+00  0.00000000E+00
  0.00000000E+00  0.00000000E+00  0.00000000E+00
  0.00000000E+00  0.00000000E+00  0.00000000E+00
  0.00000000E+00  0.00000000E+00  0.00000000E+00
  0.00000000E+00  0.00000000E+00  0.00000000E+00
  0.00000000E+00  0.00000000E+00  0.00000000E+00
  0.00000000E+00  0.00000000E+00  0.00000000E+00
  0.00000000E+00  0.00000000E+00  0.00000000E+00
  0.00000000E+00  0.00000000E+00  0.00000000E+00
  0.00000000E+00  0.00000000E+00  0.00000000E+00
  0.00000000E+00  0.00000000E+00  0.00000000E+00
  0.00000000E+00  0.00000000E+00  0.00000000E+00
  0.00000000E+00  0.00000000E+00  0.00000000E+00
