12n                                     
   1.00000000000000     
    13.4721510000000002    0.0000000000000000    0.0000000000000000
     6.7360755000000001   11.6672250000000002    0.0000000000000000
     0.0000002500000000    0.0000002500000000   26.1140000000000008
   C    Ce   H    O 
     1    48     1    97
Selective dynamics
Direct
  0.2641634922904309  0.0663814680060582  0.4954324456682714   T   T   T
  0.6665721970002871  0.8323330679049377  0.0304000000000010   F   F   F
  0.6665721970002776  0.3323330679049222  0.0304000000000010   F   F   F
  0.9999055303337162  0.1656664012380776  0.0304000000000010   F   F   F
  0.1665721970003934  0.8323330679047007  0.0304000000000010   F   F   F
  0.4999055303336277  0.1656664012382407  0.0304000000000010   F   F   F
  0.1665721970002870  0.3323330679049222  0.0304000000000010   F   F   F
  0.8332388636669443  0.9989997345716087  0.0304000000000010   F   F   F
  0.9999055303336294  0.6656664012382554  0.0304000000000010   F   F   F
  0.3332388636669569  0.4989997345715836  0.0304000000000010   F   F   F
  0.8332388636669686  0.4989997345715836  0.0304000000000010   F   F   F
  0.4999055303336241  0.6656664012382554  0.0304000000000010   F   F   F
  0.3332388636669383  0.9989997345716087  0.0304000000000010   F   F   F
  0.1665788665280859  0.6656597423883355  0.1520000000000029   F   F   F
  0.1665788665281051  0.1656597423883374  0.1520000000000029   F   F   F
  0.8332455331947650  0.8323264090549998  0.1520000000000029   F   F   F
  0.3332455331947546  0.3323264090549998  0.1520000000000029   F   F   F
  0.9999121998614304  0.4989930757216712  0.1520000000000029   F   F   F
  0.4999121998614342  0.4989930757216712  0.1520000000000029   F   F   F
  0.8332455331948474  0.3323264090548439  0.1520000000000029   F   F   F
  0.6665788665281056  0.6656597423883355  0.1520000000000029   F   F   F
  0.3332455331945541  0.8323264090554213  0.1520000000000029   F   F   F
  0.4999121998614310  0.9989930757216743  0.1520000000000029   F   F   F
  0.9999121998614324  0.9989930757216743  0.1520000000000029   F   F   F
  0.6665788665281196  0.1656597423883374  0.1520000000000029   F   F   F
  0.1667822596958216  0.4988434193399221  0.2734491298078799   T   T   T
  0.3341458300559644  0.6641229443572817  0.2722613564055531   T   T   T
  0.4989526334899248  0.8323230997566774  0.2727512726719657   T   T   T
  0.8336175041689272  0.1652306616106312  0.2729871117961251   T   T   T
  0.5002674791868804  0.3316598998585782  0.2726428395212536   T   T   T
  0.6675411947489222  0.4988415414431862  0.2726621220792356   T   T   T
  0.0002097457823139  0.3339903565283895  0.2728144464532286   T   T   T
  0.6646138719611567  0.9993220735709915  0.2723039129511322   T   T   T
  0.1662436511521056  0.9984382177968008  0.2734429651604364   T   T   T
  0.8320244242588752  0.6670962204930894  0.2727039780336919   T   T   T
  0.3314500253138487  0.1665290741604540  0.2736506792066233   T   T   T
  0.9994994526364535  0.8324815212269140  0.2732684606129178   T   T   T
  0.6634826034401180  0.8328851099533006  0.3930111766698337   T   T   T
  0.9971578864430477  0.1741748294018064  0.3917085145139134   T   T   T
  0.8242953416827241  0.9991154581666649  0.3922459300878861   T   T   T
  0.6674111147727187  0.3320180790979479  0.3929733897058040   T   T   T
  0.5020957751729057  0.6631459771019897  0.3927631014990782   T   T   T
  0.8315282077512225  0.5033514288281544  0.3929451062100230   T   T   T
  0.3361711658260351  0.4962943364841941  0.3928414349404655   T   T   T
  0.3335424068461125  0.9965764597306115  0.3937707974942936   T   T   T
  0.9980898686895012  0.6676431397892988  0.3934103313940776   T   T   T
  0.4977940671607233  0.1666191154683626  0.3929392327408303   T   T   T
  0.1742025276261992  0.8234919031214578  0.3922596374211959   T   T   T
  0.1652473029787784  0.3362252489641966  0.3956300156185714   T   T   T
 -0.0009856889754677  0.9997404724458355  0.4749646283799706   T   T   T
  0.3332521962850128  0.6656530659507145  0.0000000000000000   F   F   F
  0.1665855296183440  0.9989863992840663  0.0000000000000000   F   F   F
  0.8332521962849992  0.6656530659507145  0.0000000000000000   F   F   F
  0.1665855296183532  0.4989863992840547  0.0000000000000000   F   F   F
  0.3332521962850225  0.1656530659507017  0.0000000000000000   F   F   F
  0.9999188629516899  0.8323197326173941  0.0000000000000000   F   F   F
  0.4999188629516791  0.3323197326173750  0.0000000000000000   F   F   F
  0.4999188629516694  0.8323197326173941  0.0000000000000000   F   F   F
  0.8332521962850212  0.1656530659507017  0.0000000000000000   F   F   F
  0.6665855296183374  0.9989863992840663  0.0000000000000000   F   F   F
  0.6665855296183634  0.4989863992840547  0.0000000000000000   F   F   F
  0.9999188629516879  0.3323197326173750  0.0000000000000000   F   F   F
  0.1665788643822370  0.6656597365258200  0.0608000000000019   F   F   F
  0.9999121977155750  0.4989930698591091  0.0608000000000019   F   F   F
  0.1665788643822476  0.1656597365257629  0.0608000000000019   F   F   F
  0.8332455310488623  0.8323264031924303  0.0608000000000019   F   F   F
  0.3332455310489165  0.3323264031924257  0.0608000000000019   F   F   F
  0.3332455310489140  0.8323264031924303  0.0608000000000019   F   F   F
  0.4999121977155603  0.4989930698591091  0.0608000000000019   F   F   F
  0.8332455310489119  0.3323264031924257  0.0608000000000019   F   F   F
  0.6665788643822307  0.6656597365257911  0.0608000000000019   F   F   F
  0.6665788643822378  0.1656597365257629  0.0608000000000019   F   F   F
  0.4999121977155639  0.9989930698591157  0.0608000000000019   F   F   F
  0.9999121977155659  0.9989930698591157  0.0608000000000019   F   F   F
  0.6665721991461142  0.3323330737674974  0.1216000000000039   F   F   F
  0.9999055324794748  0.1656664071008208  0.1216000000000039   F   F   F
  0.6665721991461341  0.8323330737675102  0.1216000000000039   F   F   F
  0.1665721991461257  0.8323330737675102  0.1216000000000039   F   F   F
  0.3332388658125314  0.9989997404347072  0.1216000000000039   F   F   F
  0.4999055324794717  0.1656664071008208  0.1216000000000039   F   F   F
  0.4999055324794811  0.6656664071008151  0.1216000000000039   F   F   F
  0.3332388658127905  0.4989997404341663  0.1216000000000039   F   F   F
  0.9999055324794801  0.6656664071008151  0.1216000000000039   F   F   F
  0.1665721991461435  0.3323330737674974  0.1216000000000039   F   F   F
  0.8332388658127718  0.9989997404342030  0.1216000000000039   F   F   F
  0.8332388658128067  0.4989997404341663  0.1216000000000039   F   F   F
  0.3332522005767122  0.6656530776758705  0.1824000000000057   F   F   F
  0.3332522005767231  0.1656530776758558  0.1824000000000057   F   F   F
  0.9999188672433723  0.8323197443425344  0.1824000000000057   F   F   F
  0.1665855339100543  0.4989864110092077  0.1824000000000057   F   F   F
  0.4999188672433832  0.3323197443425310  0.1824000000000057   F   F   F
  0.6665855339100539  0.4989864110091926  0.1824000000000057   F   F   F
  0.4999188672433862  0.8323197443425344  0.1824000000000057   F   F   F
  0.1665855339100431  0.9989864110092159  0.1824000000000057   F   F   F
  0.8332522005767146  0.6656530776758705  0.1824000000000057   F   F   F
  0.8332522005767221  0.1656530776758558  0.1824000000000057   F   F   F
  0.9999188672433866  0.3323197443425310  0.1824000000000057   F   F   F
  0.6665855339100401  0.9989864110092159  0.1824000000000057   F   F   F
  0.1661764022421111  0.6654841281860284  0.2427007289396788   T   T   T
  0.5012266721703946  0.4980011919196117  0.2426092636681166   T   T   T
  0.3330473152106579  0.8318977465190572  0.2425747571540793   T   T   T
  0.9991944265786240  0.5009195960832923  0.2427331844847586   T   T   T
  0.8333672212093081  0.3325215842511195  0.2425859135791557   T   T   T
  0.3338112230130462  0.3321182799752745  0.2426243590686727   T   T   T
  0.4983068949011719  0.9994924437513893  0.2427221623516911   T   T   T
  0.6665036997802498  0.1657298337213163  0.2426204836890608   T   T   T
  0.9996603539504486  0.9986301113129444  0.2433729947788777   T   T   T
  0.6658058735548745  0.6662935107843704  0.2423948938589682   T   T   T
  0.1665687903010716  0.1650802277274554  0.2428741952700504   T   T   T
  0.8325911095716227  0.8328160887761414  0.2425456417436615   T   T   T
  0.1664227952236146  0.3333531710941639  0.3023412533061525   T   T   T
  0.6640344599742946  0.8337126377698881  0.3032332535733281   T   T   T
  0.9997236753142889  0.1673649602668137  0.3032397994501019   T   T   T
  0.8303965770910997  0.9989653989813442  0.3034497836795813   T   T   T
  0.9981566629884602  0.6692349740487066  0.3045086613734159   T   T   T
  0.3346670432059314  0.4974973126469359  0.3032036308555337   T   T   T
  0.5003429819751438  0.6650398336279240  0.3034531277820202   T   T   T
  0.1685305427639539  0.8285586756295428  0.3033687231735929   T   T   T
  0.6704609368820922  0.3299507507881140  0.3041681576676868   T   T   T
  0.3307678376189664  0.9976937996213436  0.3042194445820993   T   T   T
  0.8318078330577605  0.5017468112526581  0.3031218445967762   T   T   T
  0.4986882204506921  0.1663418465503047  0.3036518749076678   T   T   T
  0.9933168517058893  0.3369845970139692  0.3622524385211716   T   T   T
  0.5034130500374472  0.3315343229138696  0.3615010286828276   T   T   T
  0.3360576566989302  0.6623156199792246  0.3620739777107734   T   T   T
  0.8394698337799481  0.1579670474312398  0.3638322958255431   T   T   T
  0.1661576047584909  0.5056409728137509  0.3629176479269172   T   T   T
  0.4990348934417422  0.8313543113417031  0.3626213938764028   T   T   T
  0.6669678421043941  0.4991206001171656  0.3622492950531903   T   T   T
  0.6639802394429252  0.9992318683907991  0.3621172896608560   T   T   T
  0.3356058187136495  0.1604465660062031  0.3636216147380379   T   T   T
  0.9986686142270675  0.8404033608191692  0.3642768134920422   T   T   T
  0.1595344524433680  0.9960490244201821  0.3635339049661378   T   T   T
  0.8292789088762434  0.6700125130542989  0.3617349344292511   T   T   T
  0.8307284955080362  0.3325567968166163  0.4232876847401143   T   T   T
  0.6669985669366749  0.1634915831740199  0.4228876465309165   T   T   T
  0.5030770398819941  0.4969388750681146  0.4229855431255850   T   T   T
  0.3341581158343545  0.8282796738077689  0.4225032277336138   T   T   T
  0.1679540711149378  0.6690159276920388  0.4237727827072236   T   T   T
  0.5013920109348990  0.9953641688953822  0.4233407447584693   T   T   T
  0.3448554384556198  0.3325393429377292  0.4239407301687983   T   T   T
  0.9874075173474729  0.5144323122661209  0.4244131737041997   T   T   T
  0.1576533682490515  0.1618826099496376  0.4230988224041201   T   T   T
  0.8303300486812399  0.8356497474655464  0.4231660336208137   T   T   T
  0.9986382202047187  0.9992073999757435  0.4376827209613623   T   T   T
  0.6653141704875406  0.6659902807240407  0.4233376568436510   T   T   T
  0.2118627817113999  0.1170997762879078  0.5305053548716786   T   T   T
 
  0.00000000E+00  0.00000000E+00  0.00000000E+00
  0.00000000E+00  0.00000000E+00  0.00000000E+00
  0.00000000E+00  0.00000000E+00  0.00000000E+00
  0.00000000E+00  0.00000000E+00  0.00000000E+00
  0.00000000E+00  0.00000000E+00  0.00000000E+00
  0.00000000E+00  0.00000000E+00  0.00000000E+00
  0.00000000E+00  0.00000000E+00  0.00000000E+00
  0.00000000E+00  0.00000000E+00  0.00000000E+00
  0.00000000E+00  0.00000000E+00  0.00000000E+00
  0.00000000E+00  0.00000000E+00  0.00000000E+00
  0.00000000E+00  0.00000000E+00  0.00000000E+00
  0.00000000E+00  0.00000000E+00  0.00000000E+00
  0.00000000E+00  0.00000000E+00  0.00000000E+00
  0.00000000E+00  0.00000000E+00  0.00000000E+00
  0.00000000E+00  0.00000000E+00  0.00000000E+00
  0.00000000E+00  0.00000000E+00  0.00000000E+00
  0.00000000E+00  0.00000000E+00  0.00000000E+00
  0.00000000E+00  0.00000000E+00  0.00000000E+00
  0.00000000E+00  0.00000000E+00  0.00000000E+00
  0.00000000E+00  0.00000000E+00  0.00000000E+00
  0.00000000E+00  0.00000000E+00  0.00000000E+00
  0.00000000E+00  0.00000000E+00  0.00000000E+00
  0.00000000E+00  0.00000000E+00  0.00000000E+00
  0.00000000E+00  0.00000000E+00  0.00000000E+00
  0.00000000E+00  0.00000000E+00  0.00000000E+00
  0.00000000E+00  0.00000000E+00  0.00000000E+00
  0.00000000E+00  0.00000000E+00  0.00000000E+00
  0.00000000E+00  0.00000000E+00  0.00000000E+00
  0.00000000E+00  0.00000000E+00  0.00000000E+00
  0.00000000E+00  0.00000000E+00  0.00000000E+00
  0.00000000E+00  0.00000000E+00  0.00000000E+00
  0.00000000E+00  0.00000000E+00  0.00000000E+00
  0.00000000E+00  0.00000000E+00  0.00000000E+00
  0.00000000E+00  0.00000000E+00  0.00000000E+00
  0.00000000E+00  0.00000000E+00  0.00000000E+00
  0.00000000E+00  0.00000000E+00  0.00000000E+00
  0.00000000E+00  0.00000000E+00  0.00000000E+00
  0.00000000E+00  0.00000000E+00  0.00000000E+00
  0.00000000E+00  0.00000000E+00  0.00000000E+00
  0.00000000E+00  0.00000000E+00  0.00000000E+00
  0.00000000E+00  0.00000000E+00  0.00000000E+00
  0.00000000E+00  0.00000000E+00  0.00000000E+00
  0.00000000E+00  0.00000000E+00  0.00000000E+00
  0.00000000E+00  0.00000000E+00  0.00000000E+00
  0.00000000E+00  0.00000000E+00  0.00000000E+00
  0.00000000E+00  0.00000000E+00  0.00000000E+00
  0.00000000E+00  0.00000000E+00  0.00000000E+00
  0.00000000E+00  0.00000000E+00  0.00000000E+00
  0.00000000E+00  0.00000000E+00  0.00000000E+00
  0.00000000E+00  0.00000000E+00  0.00000000E+00
  0.00000000E+00  0.00000000E+00  0.00000000E+00
  0.00000000E+00  0.00000000E+00  0.00000000E+00
  0.00000000E+00  0.00000000E+00  0.00000000E+00
  0.00000000E+00  0.00000000E+00  0.00000000E+00
  0.00000000E+00  0.00000000E+00  0.00000000E+00
  0.00000000E+00  0.00000000E+00  0.00000000E+00
  0.00000000E+00  0.00000000E+00  0.00000000E+00
  0.00000000E+00  0.00000000E+00  0.00000000E+00
  0.00000000E+00  0.00000000E+00  0.00000000E+00
  0.00000000E+00  0.00000000E+00  0.00000000E+00
  0.00000000E+00  0.00000000E+00  0.00000000E+00
  0.00000000E+00  0.00000000E+00  0.00000000E+00
  0.00000000E+00  0.00000000E+00  0.00000000E+00
  0.00000000E+00  0.00000000E+00  0.00000000E+00
  0.00000000E+00  0.00000000E+00  0.00000000E+00
  0.00000000E+00  0.00000000E+00  0.00000000E+00
  0.00000000E+00  0.00000000E+00  0.00000000E+00
  0.00000000E+00  0.00000000E+00  0.00000000E+00
  0.00000000E+00  0.00000000E+00  0.00000000E+00
  0.00000000E+00  0.00000000E+00  0.00000000E+00
  0.00000000E+00  0.00000000E+00  0.00000000E+00
  0.00000000E+00  0.00000000E+00  0.00000000E+00
  0.00000000E+00  0.00000000E+00  0.00000000E+00
  0.00000000E+00  0.00000000E+00  0.00000000E+00
  0.00000000E+00  0.00000000E+00  0.00000000E+00
  0.00000000E+00  0.00000000E+00  0.00000000E+00
  0.00000000E+00  0.00000000E+00  0.00000000E+00
  0.00000000E+00  0.00000000E+00  0.00000000E+00
  0.00000000E+00  0.00000000E+00  0.00000000E+00
  0.00000000E+00  0.00000000E+00  0.00000000E+00
  0.00000000E+00  0.00000000E+00  0.00000000E+00
  0.00000000E+00  0.00000000E+00  0.00000000E+00
  0.00000000E+00  0.00000000E+00  0.00000000E+00
  0.00000000E+00  0.00000000E+00  0.00000000E+00
  0.00000000E+00  0.00000000E+00  0.00000000E+00
  0.00000000E+00  0.00000000E+00  0.00000000E+00
  0.00000000E+00  0.00000000E+00  0.00000000E+00
  0.00000000E+00  0.00000000E+00  0.00000000E+00
  0.00000000E+00  0.00000000E+00  0.00000000E+00
  0.00000000E+00  0.00000000E+00  0.00000000E+00
  0.00000000E+00  0.00000000E+00  0.00000000E+00
  0.00000000E+00  0.00000000E+00  0.00000000E+00
  0.00000000E+00  0.00000000E+00  0.00000000E+00
  0.00000000E+00  0.00000000E+00  0.00000000E+00
  0.00000000E+00  0.00000000E+00  0.00000000E+00
  0.00000000E+00  0.00000000E+00  0.00000000E+00
  0.00000000E+00  0.00000000E+00  0.00000000E+00
  0.00000000E+00  0.00000000E+00  0.00000000E+00
  0.00000000E+00  0.00000000E+00  0.00000000E+00
  0.00000000E+00  0.00000000E+00  0.00000000E+00
  0.00000000E+00  0.00000000E+00  0.00000000E+00
  0.00000000E+00  0.00000000E+00  0.00000000E+00
  0.00000000E+00  0.00000000E+00  0.00000000E+00
  0.00000000E+00  0.00000000E+00  0.00000000E+00
  0.00000000E+00  0.00000000E+00  0.00000000E+00
  0.00000000E+00  0.00000000E+00  0.00000000E+00
  0.00000000E+00  0.00000000E+00  0.00000000E+00
  0.00000000E+00  0.00000000E+00  0.00000000E+00
  0.00000000E+00  0.00000000E+00  0.00000000E+00
  0.00000000E+00  0.00000000E+00  0.00000000E+00
  0.00000000E+00  0.00000000E+00  0.00000000E+00
  0.00000000E+00  0.00000000E+00  0.00000000E+00
  0.00000000E+00  0.00000000E+00  0.00000000E+00
  0.00000000E+00  0.00000000E+00  0.00000000E+00
  0.00000000E+00  0.00000000E+00  0.00000000E+00
  0.00000000E+00  0.00000000E+00  0.00000000E+00
  0.00000000E+00  0.00000000E+00  0.00000000E+00
  0.00000000E+00  0.00000000E+00  0.00000000E+00
  0.00000000E+00  0.00000000E+00  0.00000000E+00
  0.00000000E+00  0.00000000E+00  0.00000000E+00
  0.00000000E+00  0.00000000E+00  0.00000000E+00
  0.00000000E+00  0.00000000E+00  0.00000000E+00
  0.00000000E+00  0.00000000E+00  0.00000000E+00
  0.00000000E+00  0.00000000E+00  0.00000000E+00
  0.00000000E+00  0.00000000E+00  0.00000000E+00
  0.00000000E+00  0.00000000E+00  0.00000000E+00
  0.00000000E+00  0.00000000E+00  0.00000000E+00
  0.00000000E+00  0.00000000E+00  0.00000000E+00
  0.00000000E+00  0.00000000E+00  0.00000000E+00
  0.00000000E+00  0.00000000E+00  0.00000000E+00
  0.00000000E+00  0.00000000E+00  0.00000000E+00
  0.00000000E+00  0.00000000E+00  0.00000000E+00
  0.00000000E+00  0.00000000E+00  0.00000000E+00
  0.00000000E+00  0.00000000E+00  0.00000000E+00
  0.00000000E+00  0.00000000E+00  0.00000000E+00
  0.00000000E+00  0.00000000E+00  0.00000000E+00
  0.00000000E+00  0.00000000E+00  0.00000000E+00
  0.00000000E+00  0.00000000E+00  0.00000000E+00
  0.00000000E+00  0.00000000E+00  0.00000000E+00
  0.00000000E+00  0.00000000E+00  0.00000000E+00
  0.00000000E+00  0.00000000E+00  0.00000000E+00
  0.00000000E+00  0.00000000E+00  0.00000000E+00
  0.00000000E+00  0.00000000E+00  0.00000000E+00
  0.00000000E+00  0.00000000E+00  0.00000000E+00
  0.00000000E+00  0.00000000E+00  0.00000000E+00
  0.00000000E+00  0.00000000E+00  0.00000000E+00
  0.00000000E+00  0.00000000E+00  0.00000000E+00
