cos16n                                  
   1.00000000000000     
    15.5563000000000002    0.0000000000000000    0.0000000000000000
    -7.7781500000000001   13.4721510000000002    0.0000000000000000
     0.0000010000000000    0.0000010000000000   26.1140000000000008
   C    Ce   H    O 
     1    64     1   129
Selective dynamics
Direct
  0.4411873189553939  0.5806455764484275  0.5028353286499514   T   T   T
  0.4166700000000034  0.5833299999999966  0.0304000000000002   F   F   F
  0.4166700000000034  0.8333299999999966  0.0304000000000002   F   F   F
  0.6666700000000034  0.8333299999999966  0.0304000000000002   F   F   F
  0.6666700000000034  0.5833299999999966  0.0304000000000002   F   F   F
  0.9166700000000035  0.5833299999999966  0.0304000000000002   F   F   F
  0.9166700000000034  0.8333299999999966  0.0304000000000002   F   F   F
  0.1666700000000034  0.3333299999999965  0.0304000000000002   F   F   F
  0.1666700000000035  0.0833299999999967  0.0304000000000002   F   F   F
  0.4166700000000039  0.0833299999999967  0.0304000000000002   F   F   F
  0.4166700000000034  0.3333299999999965  0.0304000000000002   F   F   F
  0.6666700000000034  0.3333299999999965  0.0304000000000002   F   F   F
  0.6666700000000040  0.0833299999999967  0.0304000000000002   F   F   F
  0.9166700000000106  0.0833299999999967  0.0304000000000002   F   F   F
  0.9166700000000034  0.3333299999999965  0.0304000000000002   F   F   F
  0.1666699999999956  0.8333299999999966  0.0304000000000002   F   F   F
  0.1666700000000034  0.5833299999999966  0.0304000000000002   F   F   F
  0.0000000000000001  0.5000000000000000  0.1520000000000010   F   F   F
  0.0000000000000000  0.7500000000000000  0.1520000000000010   F   F   F
  0.2500000000000000  0.7500000000000000  0.1520000000000010   F   F   F
  0.2500000000000077  0.5000000000000000  0.1520000000000010   F   F   F
  0.5000000000000000  0.5000000000000000  0.1520000000000010   F   F   F
  0.5000000000000000  0.7500000000000000  0.1520000000000010   F   F   F
  0.7500000000000000  0.7500000000000000  0.1520000000000010   F   F   F
  0.7500000000000000  0.5000000000000000  0.1520000000000010   F   F   F
  0.0000000000000000  0.0000000000000000  0.1520000000000010   F   F   F
  0.9999999999999933  0.2500000000000002  0.1520000000000010   F   F   F
  0.2500000000000001  0.2500000000000002  0.1520000000000010   F   F   F
  0.2500000000000149  0.0000000000000000  0.1520000000000010   F   F   F
  0.5000000000000000  0.0000000000000000  0.1520000000000010   F   F   F
  0.5000000000000000  0.2500000000000002  0.1520000000000010   F   F   F
  0.7500000000000000  0.2500000000000002  0.1520000000000010   F   F   F
  0.7500000000000000  0.0000000000000000  0.1520000000000010   F   F   F
  0.0827825874791719  0.4170231926124209  0.2723109609643239   T   T   T
  0.5842665027277676  0.4169819250050050  0.2722801442522055   T   T   T
  0.3331496862937135  0.6661039823746805  0.2729340821457595   T   T   T
  0.5829306417254985  0.6660304628012078  0.2729687236877978   T   T   T
  0.0834732809060958  0.6671876201780497  0.2728301750500077   T   T   T
  0.8338354775842342  0.6671835410090742  0.2727877059848983   T   T   T
  0.8332586355327892  0.9164138758002034  0.2728269603181534   T   T   T
  0.3332563135225721  0.9164480685064319  0.2728579564915394   T   T   T
  0.5831285967943787  0.9162449580443626  0.2728808385278492   T   T   T
  0.8334267799212123  0.4167209998461714  0.2729924495681592   T   T   T
  0.8335281899847808  0.1667338519242172  0.2730794472188437   T   T   T
  0.5832617074783545  0.1667224431955668  0.2731159455845957   T   T   T
  0.3332206262243405  0.4164042253735267  0.2734907419317071   T   T   T
  0.0836623385962082  0.9171741390906464  0.2734260411400526   T   T   T
  0.3326420869277279  0.1665709603231715  0.2739844185198993   T   T   T
  0.0838984191297716  0.1665543423293746  0.2739836184789755   T   T   T
  0.1611807071571543  0.3369095613500215  0.3923062761801682   T   T   T
  0.4257876170540157  0.3367754017306231  0.3922348540164307   T   T   T
  0.4169569328972206  0.8329042868268095  0.3927034652931169   T   T   T
  0.6660404963258761  0.8327333735758310  0.3926534414682855   T   T   T
  0.4158592549402085  0.5824400519400411  0.3938030426515137   T   T   T
  0.1659610309671595  0.5846611847264029  0.3929637823196800   T   T   T
  0.6689289429361462  0.5846130708651952  0.3928457627743990   T   T   T
  0.6665407868254695  0.0828817525777151  0.3929912028403816   T   T   T
  0.9151379528283421  0.8325217886427118  0.3932737833941429   T   T   T
  0.1676580206976563  0.8325711812290175  0.3933359966269606   T   T   T
  0.6684497645398979  0.3336734860994228  0.3933387290073705   T   T   T
  0.9153924013043807  0.3336919512804012  0.3933561831737422   T   T   T
  0.4167658321406284  0.0818097600120442  0.3934982801875299   T   T   T
  0.9151709436036960  0.0818537600747145  0.3934483023604781   T   T   T
  0.9174605754766230  0.5846311783538989  0.3936344553261759   T   T   T
  0.1637725419825546  0.0774519226618451  0.3960404589409066   T   T   T
  0.2556935133207230  0.2620873028128377  0.4765090386600994   T   T   T
  0.0833299999999966  0.6666700000000034  0.0000000000000000   F   F   F
  0.0833299999999958  0.9166700000000034  0.0000000000000000   F   F   F
  0.3333299999999966  0.9166700000000034  0.0000000000000000   F   F   F
  0.3333299999999966  0.4166700000000034  0.0000000000000000   F   F   F
  0.8333299999999966  0.6666700000000034  0.0000000000000000   F   F   F
  0.5833299999999966  0.6666700000000034  0.0000000000000000   F   F   F
  0.5833299999999966  0.9166700000000034  0.0000000000000000   F   F   F
  0.8333299999999966  0.9166700000000034  0.0000000000000000   F   F   F
  0.3333299999999966  0.1666700000000034  0.0000000000000000   F   F   F
  0.8333300000000037  0.1666700000000034  0.0000000000000000   F   F   F
  0.5833299999999966  0.1666700000000034  0.0000000000000000   F   F   F
  0.5833299999999966  0.4166700000000034  0.0000000000000000   F   F   F
  0.0833299999999966  0.1666700000000034  0.0000000000000000   F   F   F
  0.8333299999999967  0.4166700000000034  0.0000000000000000   F   F   F
  0.3333299999999966  0.6666700000000034  0.0000000000000000   F   F   F
  0.0833299999999966  0.4166700000000034  0.0000000000000000   F   F   F
  0.2499999999999998  0.4999999999999997  0.0608000000000004   F   F   F
 -0.0000000000000002  0.4999999999999997  0.0608000000000004   F   F   F
  0.9999999999999930  0.7500000000000001  0.0608000000000004   F   F   F
  0.2500000000000000  0.7500000000000001  0.0608000000000004   F   F   F
  0.7500000000000080  0.4999999999999997  0.0608000000000004   F   F   F
  0.5000000000000081  0.4999999999999997  0.0608000000000004   F   F   F
  0.5000000000000001  0.7500000000000001  0.0608000000000004   F   F   F
  0.7500000000000001  0.7500000000000001  0.0608000000000004   F   F   F
  0.2500000000000000  0.0000000000000000  0.0608000000000004   F   F   F
  0.0000000000000000  0.0000000000000000  0.0608000000000004   F   F   F
  0.0000000000000000  0.2500000000000000  0.0608000000000004   F   F   F
  0.2500000000000000  0.2500000000000000  0.0608000000000004   F   F   F
  0.7500000000000000  0.0000000000000000  0.0608000000000004   F   F   F
  0.5000000000000000  0.0000000000000000  0.0608000000000004   F   F   F
  0.5000000000000000  0.2500000000000000  0.0608000000000004   F   F   F
  0.7500000000000000  0.2500000000000000  0.0608000000000004   F   F   F
  0.1666700000000038  0.0833299999999967  0.1216000000000008   F   F   F
  0.9166700000000043  0.8333299999999753  0.1216000000000008   F   F   F
  0.9166700000000034  0.5833299999999965  0.1216000000000008   F   F   F
  0.6666700000000322  0.5833299999999965  0.1216000000000008   F   F   F
  0.1666700000000034  0.3333299999999966  0.1216000000000008   F   F   F
  0.6666700000000034  0.3333299999999966  0.1216000000000008   F   F   F
  0.9166700000000034  0.3333299999999966  0.1216000000000008   F   F   F
  0.9166700000000038  0.0833299999999967  0.1216000000000008   F   F   F
  0.6666700000000040  0.0833299999999967  0.1216000000000008   F   F   F
  0.4166700000000034  0.3333299999999966  0.1216000000000008   F   F   F
  0.1666700000000038  0.8333299999999753  0.1216000000000008   F   F   F
  0.4166700000000041  0.8333299999999753  0.1216000000000008   F   F   F
  0.4166700000000106  0.5833299999999965  0.1216000000000008   F   F   F
  0.4166700000000254  0.0833299999999967  0.1216000000000008   F   F   F
  0.1666700000000036  0.5833299999999965  0.1216000000000008   F   F   F
  0.6666700000000034  0.8333299999999753  0.1216000000000008   F   F   F
  0.0833299999999966  0.6666700000000038  0.1824000000000012   F   F   F
  0.3333299999999970  0.6666700000000038  0.1824000000000012   F   F   F
  0.3333299999999966  0.9166700000000034  0.1824000000000012   F   F   F
  0.0833299999999966  0.9166700000000034  0.1824000000000012   F   F   F
  0.5833299999999983  0.6666700000000038  0.1824000000000012   F   F   F
  0.8333300000000055  0.6666700000000038  0.1824000000000012   F   F   F
  0.8333299999999967  0.9166700000000034  0.1824000000000012   F   F   F
  0.5833299999999966  0.9166700000000034  0.1824000000000012   F   F   F
  0.0833299999999966  0.1666700000000034  0.1824000000000012   F   F   F
  0.3333299999999972  0.1666700000000034  0.1824000000000012   F   F   F
  0.3333299999999972  0.4166700000000034  0.1824000000000012   F   F   F
  0.0833299999999966  0.4166700000000034  0.1824000000000012   F   F   F
  0.5833299999999966  0.1666700000000034  0.1824000000000012   F   F   F
  0.8333300000000108  0.1666700000000034  0.1824000000000012   F   F   F
  0.8333300000000038  0.4166700000000034  0.1824000000000012   F   F   F
  0.5833299999999967  0.4166700000000034  0.1824000000000012   F   F   F
  0.2500963779897283  0.5002352909841381  0.2426088426921256   T   T   T
  0.5001776973358207  0.5002688086148560  0.2424742363751168   T   T   T
  0.7502277928712101  0.5000452045572049  0.2426299676104736   T   T   T
  0.9999088498226485  0.5001494774811378  0.2424969882476386   T   T   T
  0.7498242946982718  0.7498687236535037  0.2426649154169382   T   T   T
  0.2501263428630141  0.7498498227939362  0.2426446150791521   T   T   T
  0.4993685430248221  0.7487401999934536  0.2426877038049004   T   T   T
  0.0001166276781883  0.7501061847158628  0.2428061955991128   T   T   T
  0.7498477882090404  0.2496911331105228  0.2427463058578097   T   T   T
  0.9996075225144303  0.0002034435891800  0.2427179121510695   T   T   T
  0.2505628115140323  0.0001874930727450  0.2428693198766485   T   T   T
  0.5000500410172432  0.2497600700860838  0.2429519427099326   T   T   T
  0.9998185725875997  0.2497788219828389  0.2429328727610436   T   T   T
  0.4998617305477746  0.0002623790693484  0.2428678060471071   T   T   T
  0.7503352554976718  0.0001363444760448  0.2430028735526958   T   T   T
  0.2503257326963180  0.2506684099582584  0.2435255725526265   T   T   T
  0.1661459528752753  0.0824575017492931  0.3030305532876843   T   T   T
  0.4171588222429303  0.8322325007365449  0.3033770406660875   T   T   T
  0.6648416964541924  0.8318911424227520  0.3033914292938667   T   T   T
  0.4192887786969997  0.3355236451591858  0.3034554541356783   T   T   T
  0.1662248432092608  0.3355658974473458  0.3035818004841683   T   T   T
  0.1667206532664060  0.5837105068236784  0.3035666047005272   T   T   T
  0.6669952569757414  0.5837186615398675  0.3035055893615946   T   T   T
  0.9164186248637657  0.8336532934894898  0.3035333052445586   T   T   T
  0.1675470307123627  0.8334749227775715  0.3036142241170659   T   T   T
  0.9160747611337563  0.3332447855428898  0.3035895391465534   T   T   T
  0.6673803908098344  0.3331521137665781  0.3037367509933907   T   T   T
  0.9168516762992919  0.5834802797822544  0.3037504793243050   T   T   T
  0.6665165581296758  0.0830282715876650  0.3037510571774549   T   T   T
  0.4156573679572268  0.0836657768607895  0.3046199517326841   T   T   T
  0.9180341976306801  0.0835720786824435  0.3045718875044979   T   T   T
  0.4154547054958624  0.5808688663669330  0.3044169340008890   T   T   T
  0.3351858722084396  0.9149378080534651  0.3616836889936352   T   T   T
  0.8298387762022251  0.9148501348800435  0.3616096263196238   T   T   T
  0.0814903154414514  0.4177731610526082  0.3621421675440782   T   T   T
  0.5862276988418698  0.4177448973834135  0.3619938789096339   T   T   T
  0.0839488540037379  0.6671386085203885  0.3624588451338283   T   T   T
  0.8333921651155876  0.6671794470524053  0.3622498368620350   T   T   T
  0.3335453228849729  0.6656387616856202  0.3627982027944837   T   T   T
  0.5820357967844825  0.6653613776800749  0.3629611432895650   T   T   T
  0.5832795243666432  0.9163113647917162  0.3625220599016590   T   T   T
  0.5836222412288902  0.1665053977854802  0.3628279315172366   T   T   T
  0.8330773954500117  0.1666083119018884  0.3626604183219301   T   T   T
  0.8335908347499563  0.4168949490627823  0.3628780823182921   T   T   T
  0.0811816171431861  0.9113839434853006  0.3634294683682877   T   T   T
  0.3305463029560452  0.4107086922301946  0.3644610102343615   T   T   T
  0.3362775803074151  0.1733276061912087  0.3645866365354923   T   T   T
  0.0865511682675327  0.1731000024010217  0.3646481375715285   T   T   T
  0.2468801216190168  0.4987712037991737  0.4227137504944857   T   T   T
  0.5026073967219402  0.4984258493970272  0.4231795023926558   T   T   T
  0.5000172421146925  0.7497282776910617  0.4229556231838896   T   T   T
  0.7495305358713481  0.9998980073108286  0.4230337666569347   T   T   T
  0.5007148657216353  0.9997160343271636  0.4229680321040318   T   T   T
  0.2503086509073552  0.7489853937310439  0.4231610604418617   T   T   T
  0.7488440627182559  0.7488429413378904  0.4231624629084427   T   T   T
  0.0004887851973273  0.5014793219203474  0.4233630374430568   T   T   T
  0.7508687427923472  0.5011724374407983  0.4232413122584107   T   T   T
  0.7502467810286696  0.2503454853859990  0.4233281809562335   T   T   T
  0.9993186553347239  0.2536937577175666  0.4240366279069919   T   T   T
  0.5043877683869952  0.2537346584165633  0.4238706828302984   T   T   T
  0.9984133686737202  0.7468054976543911  0.4240432906454296   T   T   T
  0.2572853317012705  0.9944976296100794  0.4242750371285038   T   T   T
  0.9874651149370619  0.9938677894453970  0.4241009864301438   T   T   T
  0.2536653607268871  0.2580373657571554  0.4392941616673137   T   T   T
  0.4661829827125018  0.5801337710990271  0.5439308982928380   T   T   T
 
  0.00000000E+00  0.00000000E+00  0.00000000E+00
  0.00000000E+00  0.00000000E+00  0.00000000E+00
  0.00000000E+00  0.00000000E+00  0.00000000E+00
  0.00000000E+00  0.00000000E+00  0.00000000E+00
  0.00000000E+00  0.00000000E+00  0.00000000E+00
  0.00000000E+00  0.00000000E+00  0.00000000E+00
  0.00000000E+00  0.00000000E+00  0.00000000E+00
  0.00000000E+00  0.00000000E+00  0.00000000E+00
  0.00000000E+00  0.00000000E+00  0.00000000E+00
  0.00000000E+00  0.00000000E+00  0.00000000E+00
  0.00000000E+00  0.00000000E+00  0.00000000E+00
  0.00000000E+00  0.00000000E+00  0.00000000E+00
  0.00000000E+00  0.00000000E+00  0.00000000E+00
  0.00000000E+00  0.00000000E+00  0.00000000E+00
  0.00000000E+00  0.00000000E+00  0.00000000E+00
  0.00000000E+00  0.00000000E+00  0.00000000E+00
  0.00000000E+00  0.00000000E+00  0.00000000E+00
  0.00000000E+00  0.00000000E+00  0.00000000E+00
  0.00000000E+00  0.00000000E+00  0.00000000E+00
  0.00000000E+00  0.00000000E+00  0.00000000E+00
  0.00000000E+00  0.00000000E+00  0.00000000E+00
  0.00000000E+00  0.00000000E+00  0.00000000E+00
  0.00000000E+00  0.00000000E+00  0.00000000E+00
  0.00000000E+00  0.00000000E+00  0.00000000E+00
  0.00000000E+00  0.00000000E+00  0.00000000E+00
  0.00000000E+00  0.00000000E+00  0.00000000E+00
  0.00000000E+00  0.00000000E+00  0.00000000E+00
  0.00000000E+00  0.00000000E+00  0.00000000E+00
  0.00000000E+00  0.00000000E+00  0.00000000E+00
  0.00000000E+00  0.00000000E+00  0.00000000E+00
  0.00000000E+00  0.00000000E+00  0.00000000E+00
  0.00000000E+00  0.00000000E+00  0.00000000E+00
  0.00000000E+00  0.00000000E+00  0.00000000E+00
  0.00000000E+00  0.00000000E+00  0.00000000E+00
  0.00000000E+00  0.00000000E+00  0.00000000E+00
  0.00000000E+00  0.00000000E+00  0.00000000E+00
  0.00000000E+00  0.00000000E+00  0.00000000E+00
  0.00000000E+00  0.00000000E+00  0.00000000E+00
  0.00000000E+00  0.00000000E+00  0.00000000E+00
  0.00000000E+00  0.00000000E+00  0.00000000E+00
  0.00000000E+00  0.00000000E+00  0.00000000E+00
  0.00000000E+00  0.00000000E+00  0.00000000E+00
  0.00000000E+00  0.00000000E+00  0.00000000E+00
  0.00000000E+00  0.00000000E+00  0.00000000E+00
  0.00000000E+00  0.00000000E+00  0.00000000E+00
  0.00000000E+00  0.00000000E+00  0.00000000E+00
  0.00000000E+00  0.00000000E+00  0.00000000E+00
  0.00000000E+00  0.00000000E+00  0.00000000E+00
  0.00000000E+00  0.00000000E+00  0.00000000E+00
  0.00000000E+00  0.00000000E+00  0.00000000E+00
  0.00000000E+00  0.00000000E+00  0.00000000E+00
  0.00000000E+00  0.00000000E+00  0.00000000E+00
  0.00000000E+00  0.00000000E+00  0.00000000E+00
  0.00000000E+00  0.00000000E+00  0.00000000E+00
  0.00000000E+00  0.00000000E+00  0.00000000E+00
  0.00000000E+00  0.00000000E+00  0.00000000E+00
  0.00000000E+00  0.00000000E+00  0.00000000E+00
  0.00000000E+00  0.00000000E+00  0.00000000E+00
  0.00000000E+00  0.00000000E+00  0.00000000E+00
  0.00000000E+00  0.00000000E+00  0.00000000E+00
  0.00000000E+00  0.00000000E+00  0.00000000E+00
  0.00000000E+00  0.00000000E+00  0.00000000E+00
  0.00000000E+00  0.00000000E+00  0.00000000E+00
  0.00000000E+00  0.00000000E+00  0.00000000E+00
  0.00000000E+00  0.00000000E+00  0.00000000E+00
  0.00000000E+00  0.00000000E+00  0.00000000E+00
  0.00000000E+00  0.00000000E+00  0.00000000E+00
  0.00000000E+00  0.00000000E+00  0.00000000E+00
  0.00000000E+00  0.00000000E+00  0.00000000E+00
  0.00000000E+00  0.00000000E+00  0.00000000E+00
  0.00000000E+00  0.00000000E+00  0.00000000E+00
  0.00000000E+00  0.00000000E+00  0.00000000E+00
  0.00000000E+00  0.00000000E+00  0.00000000E+00
  0.00000000E+00  0.00000000E+00  0.00000000E+00
  0.00000000E+00  0.00000000E+00  0.00000000E+00
  0.00000000E+00  0.00000000E+00  0.00000000E+00
  0.00000000E+00  0.00000000E+00  0.00000000E+00
  0.00000000E+00  0.00000000E+00  0.00000000E+00
  0.00000000E+00  0.00000000E+00  0.00000000E+00
  0.00000000E+00  0.00000000E+00  0.00000000E+00
  0.00000000E+00  0.00000000E+00  0.00000000E+00
  0.00000000E+00  0.00000000E+00  0.00000000E+00
  0.00000000E+00  0.00000000E+00  0.00000000E+00
  0.00000000E+00  0.00000000E+00  0.00000000E+00
  0.00000000E+00  0.00000000E+00  0.00000000E+00
  0.00000000E+00  0.00000000E+00  0.00000000E+00
  0.00000000E+00  0.00000000E+00  0.00000000E+00
  0.00000000E+00  0.00000000E+00  0.00000000E+00
  0.00000000E+00  0.00000000E+00  0.00000000E+00
  0.00000000E+00  0.00000000E+00  0.00000000E+00
  0.00000000E+00  0.00000000E+00  0.00000000E+00
  0.00000000E+00  0.00000000E+00  0.00000000E+00
  0.00000000E+00  0.00000000E+00  0.00000000E+00
  0.00000000E+00  0.00000000E+00  0.00000000E+00
  0.00000000E+00  0.00000000E+00  0.00000000E+00
  0.00000000E+00  0.00000000E+00  0.00000000E+00
  0.00000000E+00  0.00000000E+00  0.00000000E+00
  0.00000000E+00  0.00000000E+00  0.00000000E+00
  0.00000000E+00  0.00000000E+00  0.00000000E+00
  0.00000000E+00  0.00000000E+00  0.00000000E+00
  0.00000000E+00  0.00000000E+00  0.00000000E+00
  0.00000000E+00  0.00000000E+00  0.00000000E+00
  0.00000000E+00  0.00000000E+00  0.00000000E+00
  0.00000000E+00  0.00000000E+00  0.00000000E+00
  0.00000000E+00  0.00000000E+00  0.00000000E+00
  0.00000000E+00  0.00000000E+00  0.00000000E+00
  0.00000000E+00  0.00000000E+00  0.00000000E+00
  0.00000000E+00  0.00000000E+00  0.00000000E+00
  0.00000000E+00  0.00000000E+00  0.00000000E+00
  0.00000000E+00  0.00000000E+00  0.00000000E+00
  0.00000000E+00  0.00000000E+00  0.00000000E+00
  0.00000000E+00  0.00000000E+00  0.00000000E+00
  0.00000000E+00  0.00000000E+00  0.00000000E+00
  0.00000000E+00  0.00000000E+00  0.00000000E+00
  0.00000000E+00  0.00000000E+00  0.00000000E+00
  0.00000000E+00  0.00000000E+00  0.00000000E+00
  0.00000000E+00  0.00000000E+00  0.00000000E+00
  0.00000000E+00  0.00000000E+00  0.00000000E+00
  0.00000000E+00  0.00000000E+00  0.00000000E+00
  0.00000000E+00  0.00000000E+00  0.00000000E+00
  0.00000000E+00  0.00000000E+00  0.00000000E+00
  0.00000000E+00  0.00000000E+00  0.00000000E+00
  0.00000000E+00  0.00000000E+00  0.00000000E+00
  0.00000000E+00  0.00000000E+00  0.00000000E+00
  0.00000000E+00  0.00000000E+00  0.00000000E+00
  0.00000000E+00  0.00000000E+00  0.00000000E+00
  0.00000000E+00  0.00000000E+00  0.00000000E+00
  0.00000000E+00  0.00000000E+00  0.00000000E+00
  0.00000000E+00  0.00000000E+00  0.00000000E+00
  0.00000000E+00  0.00000000E+00  0.00000000E+00
  0.00000000E+00  0.00000000E+00  0.00000000E+00
  0.00000000E+00  0.00000000E+00  0.00000000E+00
  0.00000000E+00  0.00000000E+00  0.00000000E+00
  0.00000000E+00  0.00000000E+00  0.00000000E+00
  0.00000000E+00  0.00000000E+00  0.00000000E+00
  0.00000000E+00  0.00000000E+00  0.00000000E+00
  0.00000000E+00  0.00000000E+00  0.00000000E+00
  0.00000000E+00  0.00000000E+00  0.00000000E+00
  0.00000000E+00  0.00000000E+00  0.00000000E+00
  0.00000000E+00  0.00000000E+00  0.00000000E+00
  0.00000000E+00  0.00000000E+00  0.00000000E+00
  0.00000000E+00  0.00000000E+00  0.00000000E+00
  0.00000000E+00  0.00000000E+00  0.00000000E+00
  0.00000000E+00  0.00000000E+00  0.00000000E+00
  0.00000000E+00  0.00000000E+00  0.00000000E+00
  0.00000000E+00  0.00000000E+00  0.00000000E+00
  0.00000000E+00  0.00000000E+00  0.00000000E+00
  0.00000000E+00  0.00000000E+00  0.00000000E+00
  0.00000000E+00  0.00000000E+00  0.00000000E+00
  0.00000000E+00  0.00000000E+00  0.00000000E+00
  0.00000000E+00  0.00000000E+00  0.00000000E+00
  0.00000000E+00  0.00000000E+00  0.00000000E+00
  0.00000000E+00  0.00000000E+00  0.00000000E+00
  0.00000000E+00  0.00000000E+00  0.00000000E+00
  0.00000000E+00  0.00000000E+00  0.00000000E+00
  0.00000000E+00  0.00000000E+00  0.00000000E+00
  0.00000000E+00  0.00000000E+00  0.00000000E+00
  0.00000000E+00  0.00000000E+00  0.00000000E+00
  0.00000000E+00  0.00000000E+00  0.00000000E+00
  0.00000000E+00  0.00000000E+00  0.00000000E+00
  0.00000000E+00  0.00000000E+00  0.00000000E+00
  0.00000000E+00  0.00000000E+00  0.00000000E+00
  0.00000000E+00  0.00000000E+00  0.00000000E+00
  0.00000000E+00  0.00000000E+00  0.00000000E+00
  0.00000000E+00  0.00000000E+00  0.00000000E+00
  0.00000000E+00  0.00000000E+00  0.00000000E+00
  0.00000000E+00  0.00000000E+00  0.00000000E+00
  0.00000000E+00  0.00000000E+00  0.00000000E+00
  0.00000000E+00  0.00000000E+00  0.00000000E+00
  0.00000000E+00  0.00000000E+00  0.00000000E+00
  0.00000000E+00  0.00000000E+00  0.00000000E+00
  0.00000000E+00  0.00000000E+00  0.00000000E+00
  0.00000000E+00  0.00000000E+00  0.00000000E+00
  0.00000000E+00  0.00000000E+00  0.00000000E+00
  0.00000000E+00  0.00000000E+00  0.00000000E+00
  0.00000000E+00  0.00000000E+00  0.00000000E+00
  0.00000000E+00  0.00000000E+00  0.00000000E+00
  0.00000000E+00  0.00000000E+00  0.00000000E+00
  0.00000000E+00  0.00000000E+00  0.00000000E+00
  0.00000000E+00  0.00000000E+00  0.00000000E+00
  0.00000000E+00  0.00000000E+00  0.00000000E+00
  0.00000000E+00  0.00000000E+00  0.00000000E+00
  0.00000000E+00  0.00000000E+00  0.00000000E+00
  0.00000000E+00  0.00000000E+00  0.00000000E+00
  0.00000000E+00  0.00000000E+00  0.00000000E+00
  0.00000000E+00  0.00000000E+00  0.00000000E+00
  0.00000000E+00  0.00000000E+00  0.00000000E+00
  0.00000000E+00  0.00000000E+00  0.00000000E+00
  0.00000000E+00  0.00000000E+00  0.00000000E+00
  0.00000000E+00  0.00000000E+00  0.00000000E+00
  0.00000000E+00  0.00000000E+00  0.00000000E+00
  0.00000000E+00  0.00000000E+00  0.00000000E+00
  0.00000000E+00  0.00000000E+00  0.00000000E+00
  0.00000000E+00  0.00000000E+00  0.00000000E+00
  0.00000000E+00  0.00000000E+00  0.00000000E+00
