cos4n                                   
   1.00000000000000     
     7.7781000000000002    0.0000000000000000    0.0000000000000000
    -3.8890500000000001    6.7360319999999998    0.0000000000000000
     0.0000010000000000    0.0000010000000000   26.1140000000000008
   C    Ce   H    O 
     1    16     1    33
Selective dynamics
Direct
  0.8856037059376682  0.1657810458837971  0.5041490404465407   T   T   T
  0.3333400000000286  0.6666600000000003  0.0304000000000002   F   F   F
  0.3333399999999998  0.1666600000000003  0.0304000000000002   F   F   F
  0.8333399999999925  0.1666600000000003  0.0304000000000002   F   F   F
  0.8333399999999999  0.6666600000000003  0.0304000000000002   F   F   F
  0.0000000000000000  0.0000000000000000  0.1520000000000010   F   F   F
  0.0000000000000069  0.5000000000000000  0.1520000000000010   F   F   F
  0.5000000000000000  0.5000000000000000  0.1520000000000010   F   F   F
  0.5000000000000009  0.0000000000000000  0.1520000000000010   F   F   F
  0.1676898940390455  0.8351190113637227  0.2720187104118084   T   T   T
  0.6661169746547900  0.8317715875818933  0.2731909817591777   T   T   T
  0.6662047039445816  0.3328475261200749  0.2737385561094288   T   T   T
  0.1669748153545328  0.3328583815918830  0.2738311717529557   T   T   T
  0.3272144529721963  0.6712770183158570  0.3923294916157094   T   T   T
  0.8449099321835348  0.6709782875307284  0.3923506267100898   T   T   T
  0.3305947913909603  0.1598783665746930  0.3956633043279428   T   T   T
  0.8310346314870358  0.1628582756028146  0.3952720025526373   T   T   T
  0.5137949352085585  0.5262196037317952  0.4774179873086755   T   T   T
  0.6666600000000003  0.8333399999999997  0.0000000000000000   F   F   F
  0.6666600000000003  0.3333399999999999  0.0000000000000000   F   F   F
  0.1666600000000003  0.3333399999999999  0.0000000000000000   F   F   F
  0.1666599999999998  0.8333399999999997  0.0000000000000000   F   F   F
  0.5000000000000009  0.0000000000000000  0.0608000000000004   F   F   F
  0.0000000000000000  0.0000000000000000  0.0608000000000004   F   F   F
  0.0000000000000071  0.5000000000000000  0.0608000000000004   F   F   F
  0.5000000000000356  0.5000000000000000  0.0608000000000004   F   F   F
  0.8333400000000003  0.1666600000000003  0.1216000000000008   F   F   F
  0.3333399999999927  0.1666600000000003  0.1216000000000008   F   F   F
  0.3333399999999998  0.6666600000000004  0.1216000000000008   F   F   F
  0.8333400000000000  0.6666600000000004  0.1216000000000008   F   F   F
  0.1666600000000004  0.3333400000000005  0.1824000000000012   F   F   F
  0.6666600000000007  0.3333400000000005  0.1824000000000012   F   F   F
  0.6666599999999999  0.8333399999999997  0.1824000000000012   F   F   F
  0.1666599999999997  0.8333399999999997  0.1824000000000012   F   F   F
  0.5027959845595662  0.0014663420633843  0.2425789111937738   T   T   T
  0.9988792836980727  0.0014651084082307  0.2426024621730514   T   T   T
  0.9982497214867165  0.4961415267837205  0.2429385645177723   T   T   T
  0.5002152637757323  0.5002407000746241  0.2431959662890174   T   T   T
  0.3330711806166008  0.1657621944317014  0.3024984478210051   T   T   T
  0.8374595362662129  0.6683302673150531  0.3027300596915106   T   T   T
  0.3315956523284954  0.6687380345317511  0.3027867964188418   T   T   T
  0.8313329729907003  0.1624890454026159  0.3062656595960583   T   T   T
  0.1641507679737496  0.8284830896948800  0.3624188597700682   T   T   T
  0.6570251964179482  0.8122567540037923  0.3627881561127456   T   T   T
  0.1725186368463488  0.3444404118561704  0.3649028705268831   T   T   T
  0.6721948603352836  0.3439607530887961  0.3648818110368579   T   T   T
  0.5081718287129094  0.9870764509948042  0.4246216116576825   T   T   T
  0.9809079352010428  0.9873165859305674  0.4251497094152292   T   T   T
  0.0047969957885142  0.5091102706388059  0.4259493489358678   T   T   T
  0.5057327494658956  0.5107697083038129  0.4403791834783167   T   T   T
  0.9362546379736904  0.1583596084412992  0.5448299979115738   T   T   T
 
  0.00000000E+00  0.00000000E+00  0.00000000E+00
  0.00000000E+00  0.00000000E+00  0.00000000E+00
  0.00000000E+00  0.00000000E+00  0.00000000E+00
  0.00000000E+00  0.00000000E+00  0.00000000E+00
  0.00000000E+00  0.00000000E+00  0.00000000E+00
  0.00000000E+00  0.00000000E+00  0.00000000E+00
  0.00000000E+00  0.00000000E+00  0.00000000E+00
  0.00000000E+00  0.00000000E+00  0.00000000E+00
  0.00000000E+00  0.00000000E+00  0.00000000E+00
  0.00000000E+00  0.00000000E+00  0.00000000E+00
  0.00000000E+00  0.00000000E+00  0.00000000E+00
  0.00000000E+00  0.00000000E+00  0.00000000E+00
  0.00000000E+00  0.00000000E+00  0.00000000E+00
  0.00000000E+00  0.00000000E+00  0.00000000E+00
  0.00000000E+00  0.00000000E+00  0.00000000E+00
  0.00000000E+00  0.00000000E+00  0.00000000E+00
  0.00000000E+00  0.00000000E+00  0.00000000E+00
  0.00000000E+00  0.00000000E+00  0.00000000E+00
  0.00000000E+00  0.00000000E+00  0.00000000E+00
  0.00000000E+00  0.00000000E+00  0.00000000E+00
  0.00000000E+00  0.00000000E+00  0.00000000E+00
  0.00000000E+00  0.00000000E+00  0.00000000E+00
  0.00000000E+00  0.00000000E+00  0.00000000E+00
  0.00000000E+00  0.00000000E+00  0.00000000E+00
  0.00000000E+00  0.00000000E+00  0.00000000E+00
  0.00000000E+00  0.00000000E+00  0.00000000E+00
  0.00000000E+00  0.00000000E+00  0.00000000E+00
  0.00000000E+00  0.00000000E+00  0.00000000E+00
  0.00000000E+00  0.00000000E+00  0.00000000E+00
  0.00000000E+00  0.00000000E+00  0.00000000E+00
  0.00000000E+00  0.00000000E+00  0.00000000E+00
  0.00000000E+00  0.00000000E+00  0.00000000E+00
  0.00000000E+00  0.00000000E+00  0.00000000E+00
  0.00000000E+00  0.00000000E+00  0.00000000E+00
  0.00000000E+00  0.00000000E+00  0.00000000E+00
  0.00000000E+00  0.00000000E+00  0.00000000E+00
  0.00000000E+00  0.00000000E+00  0.00000000E+00
  0.00000000E+00  0.00000000E+00  0.00000000E+00
  0.00000000E+00  0.00000000E+00  0.00000000E+00
  0.00000000E+00  0.00000000E+00  0.00000000E+00
  0.00000000E+00  0.00000000E+00  0.00000000E+00
  0.00000000E+00  0.00000000E+00  0.00000000E+00
  0.00000000E+00  0.00000000E+00  0.00000000E+00
  0.00000000E+00  0.00000000E+00  0.00000000E+00
  0.00000000E+00  0.00000000E+00  0.00000000E+00
  0.00000000E+00  0.00000000E+00  0.00000000E+00
  0.00000000E+00  0.00000000E+00  0.00000000E+00
  0.00000000E+00  0.00000000E+00  0.00000000E+00
  0.00000000E+00  0.00000000E+00  0.00000000E+00
  0.00000000E+00  0.00000000E+00  0.00000000E+00
  0.00000000E+00  0.00000000E+00  0.00000000E+00
