cos12n                                  
   1.00000000000000     
    13.4722000000000008    0.0000000000000000    0.0000000000000000
     6.7361000000000004   11.6672670000000007    0.0000000000000000
     0.0000010000000000    0.0000000000000000   26.1140000000000008
   C    Ce   H    O 
     1    48     1    97
Selective dynamics
Direct
  0.2014943904989552  0.4789727502999870  0.5024856081612908   T   T   T
  0.8333300000000441  0.6666700000000035  0.0304000000000002   F   F   F
  0.1666700000000034  0.5000000000000001  0.0304000000000002   F   F   F
  0.8333300000000607  0.1666700000000117  0.0304000000000002   F   F   F
  0.5000000000000766  0.8333299999999968  0.0304000000000002   F   F   F
  0.3333300000000040  0.1666700000000117  0.0304000000000002   F   F   F
  0.0000000000000008  0.8333299999999968  0.0304000000000002   F   F   F
  0.6666700000000136  0.5000000000000001  0.0304000000000002   F   F   F
  0.0000000000000000  0.3333299999999966  0.0304000000000002   F   F   F
  0.6666700000000774  0.0000000000000000  0.0304000000000002   F   F   F
  0.3333300000000777  0.6666700000000035  0.0304000000000002   F   F   F
  0.1666700000000034  0.0000000000000000  0.0304000000000002   F   F   F
  0.5000000000000778  0.3333299999999966  0.0304000000000002   F   F   F
  0.3333299999999983  0.3333299999999966  0.1520000000000010   F   F   F
  0.6666700000000877  0.6666700000000035  0.1520000000000010   F   F   F
  0.5000000000000002  0.0000000000000000  0.1520000000000010   F   F   F
  0.1666700000000035  0.6666700000000035  0.1520000000000010   F   F   F
  0.8333300000000299  0.3333299999999966  0.1520000000000010   F   F   F
  0.1666700000000017  0.1666700000000117  0.1520000000000010   F   F   F
  0.5000000000000003  0.5000000000000001  0.1520000000000010   F   F   F
  0.8333299999999964  0.8333299999999968  0.1520000000000010   F   F   F
  0.0000000000000310  0.5000000000000001  0.1520000000000010   F   F   F
  0.6666700000000260  0.1666700000000117  0.1520000000000010   F   F   F
  0.3333299999999965  0.8333299999999968  0.1520000000000010   F   F   F
  0.0000000000000000  0.0000000000000000  0.1520000000000010   F   F   F
  0.5009016942812800  0.1666204220239113  0.2723104471611591   T   T   T
  0.1666719260818263  0.8324282352078253  0.2723161233811422   T   T   T
  0.6664427639169394  0.3339452870657151  0.2728190096337282   T   T   T
  0.8342107736912335  0.0000322835008660  0.2728773514589180   T   T   T
  0.4996786464067590  0.6665394867718392  0.2729886728111874   T   T   T
  0.6668132949014777  0.8335820700196250  0.2729604223732289   T   T   T
  0.9997520551006978  0.6665063162255845  0.2729872421553661   T   T   T
  0.3328391272565108  0.4991168521452705  0.2731268075942888   T   T   T
  0.8332884063969694  0.5000433206799730  0.2735586083529431   T   T   T
  0.3330837448373531  0.0003037760293172  0.2735577891187780   T   T   T
  0.0004111911223273  0.1674616629081145  0.2740680265486998   T   T   T
  0.1659055801402536  0.3333885430526597  0.2743037169216594   T   T   T
  0.1662299560673876  0.9913604786450049  0.3923917964510565   T   T   T
  0.3424697244465917  0.1667101623358583  0.3925026791357257   T   T   T
  0.3336192125845159  0.6643139847915849  0.3929951009516277   T   T   T
  0.6692309259996079  0.9996144349424100  0.3929426868962642   T   T   T
  0.5014786664521337  0.3332660566007038  0.3930946779999556   T   T   T
  0.9994665631991455  0.8327505071460529  0.3930817910285863   T   T   T
  0.6641303319252154  0.5009559802034709  0.3934073529179567   T   T   T
  0.8319111292584602  0.6692409627303558  0.3933990355782475   T   T   T
  0.4999047590127258  0.8333687444143032  0.3935047661527687   T   T   T
  0.8323113068009970  0.1679817932668420  0.3936403018037174   T   T   T
  0.1644637173369417  0.5017991276456278  0.3946515754748511   T   T   T
  0.9935989175653350  0.3395676763138048  0.3962990831742716   T   T   T
  0.1798964897032943  0.1532924771117103  0.4763234369023447   T   T   T
 -0.0000000000000088  0.1666700000000117  0.0000000000000000   F   F   F
  0.3333299999999965  0.5000000000000001  0.0000000000000000   F   F   F
  0.6666700000000035  0.8333299999999968  0.0000000000000000   F   F   F
  0.3333299999999966  0.0000000000000000  0.0000000000000000   F   F   F
  0.4999999999999910  0.1666700000000117  0.0000000000000000   F   F   F
  0.1666700000000326  0.8333299999999968  0.0000000000000000   F   F   F
  0.8333300000001582  0.5000000000000001  0.0000000000000000   F   F   F
  0.0000000000000013  0.6666700000000035  0.0000000000000000   F   F   F
  0.1666700000000035  0.3333299999999966  0.0000000000000000   F   F   F
  0.8333299999999991  0.0000000000000000  0.0000000000000000   F   F   F
  0.4999999999999999  0.6666700000000035  0.0000000000000000   F   F   F
  0.6666700000000750  0.3333299999999966  0.0000000000000000   F   F   F
  0.0000000000000143  0.5000000000000001  0.0608000000000004   F   F   F
  0.6666700000000029  0.1666700000000117  0.0608000000000004   F   F   F
  0.3333299999999964  0.8333299999999968  0.0608000000000004   F   F   F
  0.0000000000000000  0.0000000000000000  0.0608000000000004   F   F   F
  0.3333299999999965  0.3333299999999966  0.0608000000000004   F   F   F
  0.6666700000000827  0.6666700000000035  0.0608000000000004   F   F   F
  0.5000000000000002  0.0000000000000000  0.0608000000000004   F   F   F
  0.1666700000000034  0.6666700000000035  0.0608000000000004   F   F   F
  0.8333300000000978  0.3333299999999966  0.0608000000000004   F   F   F
  0.1666700000000093  0.1666700000000117  0.0608000000000004   F   F   F
  0.4999999999999999  0.5000000000000001  0.0608000000000004   F   F   F
  0.8333300000000464  0.8333299999999968  0.0608000000000004   F   F   F
  0.3333300000000046  0.1666700000000117  0.1216000000000008   F   F   F
  0.0000000000000197  0.8333299999999968  0.1216000000000008   F   F   F
  0.6666700000000033  0.5000000000000001  0.1216000000000008   F   F   F
  0.1666700000000420  0.5000000000000001  0.1216000000000008   F   F   F
  0.8333299999999974  0.1666700000000117  0.1216000000000008   F   F   F
  0.5000000000000006  0.8333299999999968  0.1216000000000008   F   F   F
  0.1666700000000035  0.0000000000000000  0.1216000000000008   F   F   F
  0.0000000000000000  0.3333299999999966  0.1216000000000008   F   F   F
  0.5000000000000002  0.3333299999999966  0.1216000000000008   F   F   F
  0.8333300000000040  0.6666700000000035  0.1216000000000008   F   F   F
  0.6666700000000034  0.0000000000000000  0.1216000000000008   F   F   F
  0.3333299999999966  0.6666700000000035  0.1216000000000008   F   F   F
 -0.0000000000000037  0.1666700000000117  0.1824000000000012   F   F   F
  0.3333299999999966  0.5000000000000001  0.1824000000000012   F   F   F
  0.6666700000000487  0.8333299999999968  0.1824000000000012   F   F   F
  0.3333299999999966  0.0000000000000000  0.1824000000000012   F   F   F
  0.0000000000000000  0.6666700000000035  0.1824000000000012   F   F   F
  0.6666700000000815  0.3333299999999966  0.1824000000000012   F   F   F
  0.1666700000000035  0.3333299999999966  0.1824000000000012   F   F   F
  0.8333300000000977  0.0000000000000000  0.1824000000000012   F   F   F
  0.5000000000001298  0.6666700000000035  0.1824000000000012   F   F   F
  0.5000000000000017  0.1666700000000117  0.1824000000000012   F   F   F
  0.1666700000000068  0.8333299999999968  0.1824000000000012   F   F   F
  0.8333300000002285  0.5000000000000001  0.1824000000000012   F   F   F
  0.8332426135254986  0.8335195173786666  0.2426509406650768   T   T   T
  0.4994842656908142  0.5002574836478079  0.2426085142078769   T   T   T
  0.5004393919962683  0.9993974586932761  0.2426414616057954   T   T   T
  0.3339118335169453  0.8327646453969818  0.2427432110765688   T   T   T
  0.9998884522990446  0.0006090494553434  0.2427030027023088   T   T   T
  0.6674413654560495  0.1667422312109350  0.2427825038337442   T   T   T
  0.1667687207490827  0.6658810369042146  0.2427699236297402   T   T   T
  0.3327611202798194  0.3333591866057192  0.2427999142862295   T   T   T
  0.9998641703245125  0.5004035420601817  0.2428681925547242   T   T   T
  0.8330300230627530  0.3333592907093688  0.2428776921593107   T   T   T
  0.6657101292930225  0.6676605193205060  0.2431259391326142   T   T   T
  0.1672877134712003  0.1661765046434872  0.2436838543652012   T   T   T
  0.9998850549676548  0.8340829317525327  0.3032495829053209   T   T   T
  0.4988752662772205  0.3336251550585657  0.3032763161767809   T   T   T
  0.9987061828311905  0.3348216338513971  0.3032833926322142   T   T   T
  0.1678549561547566  0.9968108556197343  0.3035206775695531   T   T   T
  0.6677391996937377  0.9997628289550238  0.3035020418712762   T   T   T
  0.6656385159318163  0.5001949702176884  0.3036886013229627   T   T   T
  0.3365146534404793  0.1656565664170530  0.3037232463889095   T   T   T
  0.3333408271517659  0.6655043214807352  0.3037824219129726   T   T   T
  0.8333817845380940  0.6674196757293346  0.3038170469450446   T   T   T
  0.8346365418882976  0.1675509049159809  0.3046280152260225   T   T   T
  0.1655245311806771  0.4989884776616816  0.3044910934126319   T   T   T
  0.4980111797421525  0.8353375163142199  0.3048760720088472   T   T   T
  0.6637101083638481  0.3340620950578008  0.3617437665306466   T   T   T
  0.5035651745458346  0.1659622789546421  0.3621246888012303   T   T   T
  0.1668074068520301  0.8307289738786937  0.3621997453735582   T   T   T
  0.9997435247523530  0.6694574707356653  0.3621260521343513   T   T   T
  0.8340211796774916  0.0000170810381769  0.3625731955249356   T   T   T
  0.4988231431935970  0.6670242061489545  0.3627044315968403   T   T   T
  0.6662232007778424  0.8345487440190353  0.3626049764758709   T   T   T
  0.3326840278176512  0.4989287986728055  0.3631698783014275   T   T   T
  0.8265008459815277  0.5062571722247100  0.3636025847328645   T   T   T
  0.3268916912606590  0.0063528469496070  0.3642500224400825   T   T   T
  0.0069663308930681  0.1605368945397031  0.3647636647045570   T   T   T
  0.1732267460966885  0.3271638564881805  0.3653008156992476   T   T   T
  0.3315843346673007  0.8326783962588667  0.4229840635233295   T   T   T
  0.5009100687588718  0.0014097831174269  0.4229313536723736   T   T   T
  0.6684514105247075  0.1660380041407060  0.4233304275985700   T   T   T
  0.8325808358212046  0.8348860950206950  0.4234518974658718   T   T   T
  0.1671613394446685  0.6668752570841333  0.4234916463195059   T   T   T
  0.4984931475036027  0.5006076503804342  0.4235556942733948   T   T   T
  0.0025786472748668  0.9948226074012708  0.4239921445643404   T   T   T
  0.6607000584381620  0.6725943524412203  0.4241347302722455   T   T   T
  0.9977841125529073  0.5127704094857202  0.4244338898123209   T   T   T
  0.8209425454655489  0.3333730852376647  0.4244998410522272   T   T   T
  0.3419870588940335  0.3275090072397959  0.4247397053658343   T   T   T
  0.1745776340992446  0.1592308335523422  0.4391752203759107   T   T   T
  0.2320551426769541  0.4605840443160998  0.5440359657656487   T   T   T
 
  0.00000000E+00  0.00000000E+00  0.00000000E+00
  0.00000000E+00  0.00000000E+00  0.00000000E+00
  0.00000000E+00  0.00000000E+00  0.00000000E+00
  0.00000000E+00  0.00000000E+00  0.00000000E+00
  0.00000000E+00  0.00000000E+00  0.00000000E+00
  0.00000000E+00  0.00000000E+00  0.00000000E+00
  0.00000000E+00  0.00000000E+00  0.00000000E+00
  0.00000000E+00  0.00000000E+00  0.00000000E+00
  0.00000000E+00  0.00000000E+00  0.00000000E+00
  0.00000000E+00  0.00000000E+00  0.00000000E+00
  0.00000000E+00  0.00000000E+00  0.00000000E+00
  0.00000000E+00  0.00000000E+00  0.00000000E+00
  0.00000000E+00  0.00000000E+00  0.00000000E+00
  0.00000000E+00  0.00000000E+00  0.00000000E+00
  0.00000000E+00  0.00000000E+00  0.00000000E+00
  0.00000000E+00  0.00000000E+00  0.00000000E+00
  0.00000000E+00  0.00000000E+00  0.00000000E+00
  0.00000000E+00  0.00000000E+00  0.00000000E+00
  0.00000000E+00  0.00000000E+00  0.00000000E+00
  0.00000000E+00  0.00000000E+00  0.00000000E+00
  0.00000000E+00  0.00000000E+00  0.00000000E+00
  0.00000000E+00  0.00000000E+00  0.00000000E+00
  0.00000000E+00  0.00000000E+00  0.00000000E+00
  0.00000000E+00  0.00000000E+00  0.00000000E+00
  0.00000000E+00  0.00000000E+00  0.00000000E+00
  0.00000000E+00  0.00000000E+00  0.00000000E+00
  0.00000000E+00  0.00000000E+00  0.00000000E+00
  0.00000000E+00  0.00000000E+00  0.00000000E+00
  0.00000000E+00  0.00000000E+00  0.00000000E+00
  0.00000000E+00  0.00000000E+00  0.00000000E+00
  0.00000000E+00  0.00000000E+00  0.00000000E+00
  0.00000000E+00  0.00000000E+00  0.00000000E+00
  0.00000000E+00  0.00000000E+00  0.00000000E+00
  0.00000000E+00  0.00000000E+00  0.00000000E+00
  0.00000000E+00  0.00000000E+00  0.00000000E+00
  0.00000000E+00  0.00000000E+00  0.00000000E+00
  0.00000000E+00  0.00000000E+00  0.00000000E+00
  0.00000000E+00  0.00000000E+00  0.00000000E+00
  0.00000000E+00  0.00000000E+00  0.00000000E+00
  0.00000000E+00  0.00000000E+00  0.00000000E+00
  0.00000000E+00  0.00000000E+00  0.00000000E+00
  0.00000000E+00  0.00000000E+00  0.00000000E+00
  0.00000000E+00  0.00000000E+00  0.00000000E+00
  0.00000000E+00  0.00000000E+00  0.00000000E+00
  0.00000000E+00  0.00000000E+00  0.00000000E+00
  0.00000000E+00  0.00000000E+00  0.00000000E+00
  0.00000000E+00  0.00000000E+00  0.00000000E+00
  0.00000000E+00  0.00000000E+00  0.00000000E+00
  0.00000000E+00  0.00000000E+00  0.00000000E+00
  0.00000000E+00  0.00000000E+00  0.00000000E+00
  0.00000000E+00  0.00000000E+00  0.00000000E+00
  0.00000000E+00  0.00000000E+00  0.00000000E+00
  0.00000000E+00  0.00000000E+00  0.00000000E+00
  0.00000000E+00  0.00000000E+00  0.00000000E+00
  0.00000000E+00  0.00000000E+00  0.00000000E+00
  0.00000000E+00  0.00000000E+00  0.00000000E+00
  0.00000000E+00  0.00000000E+00  0.00000000E+00
  0.00000000E+00  0.00000000E+00  0.00000000E+00
  0.00000000E+00  0.00000000E+00  0.00000000E+00
  0.00000000E+00  0.00000000E+00  0.00000000E+00
  0.00000000E+00  0.00000000E+00  0.00000000E+00
  0.00000000E+00  0.00000000E+00  0.00000000E+00
  0.00000000E+00  0.00000000E+00  0.00000000E+00
  0.00000000E+00  0.00000000E+00  0.00000000E+00
  0.00000000E+00  0.00000000E+00  0.00000000E+00
  0.00000000E+00  0.00000000E+00  0.00000000E+00
  0.00000000E+00  0.00000000E+00  0.00000000E+00
  0.00000000E+00  0.00000000E+00  0.00000000E+00
  0.00000000E+00  0.00000000E+00  0.00000000E+00
  0.00000000E+00  0.00000000E+00  0.00000000E+00
  0.00000000E+00  0.00000000E+00  0.00000000E+00
  0.00000000E+00  0.00000000E+00  0.00000000E+00
  0.00000000E+00  0.00000000E+00  0.00000000E+00
  0.00000000E+00  0.00000000E+00  0.00000000E+00
  0.00000000E+00  0.00000000E+00  0.00000000E+00
  0.00000000E+00  0.00000000E+00  0.00000000E+00
  0.00000000E+00  0.00000000E+00  0.00000000E+00
  0.00000000E+00  0.00000000E+00  0.00000000E+00
  0.00000000E+00  0.00000000E+00  0.00000000E+00
  0.00000000E+00  0.00000000E+00  0.00000000E+00
  0.00000000E+00  0.00000000E+00  0.00000000E+00
  0.00000000E+00  0.00000000E+00  0.00000000E+00
  0.00000000E+00  0.00000000E+00  0.00000000E+00
  0.00000000E+00  0.00000000E+00  0.00000000E+00
  0.00000000E+00  0.00000000E+00  0.00000000E+00
  0.00000000E+00  0.00000000E+00  0.00000000E+00
  0.00000000E+00  0.00000000E+00  0.00000000E+00
  0.00000000E+00  0.00000000E+00  0.00000000E+00
  0.00000000E+00  0.00000000E+00  0.00000000E+00
  0.00000000E+00  0.00000000E+00  0.00000000E+00
  0.00000000E+00  0.00000000E+00  0.00000000E+00
  0.00000000E+00  0.00000000E+00  0.00000000E+00
  0.00000000E+00  0.00000000E+00  0.00000000E+00
  0.00000000E+00  0.00000000E+00  0.00000000E+00
  0.00000000E+00  0.00000000E+00  0.00000000E+00
  0.00000000E+00  0.00000000E+00  0.00000000E+00
  0.00000000E+00  0.00000000E+00  0.00000000E+00
  0.00000000E+00  0.00000000E+00  0.00000000E+00
  0.00000000E+00  0.00000000E+00  0.00000000E+00
  0.00000000E+00  0.00000000E+00  0.00000000E+00
  0.00000000E+00  0.00000000E+00  0.00000000E+00
  0.00000000E+00  0.00000000E+00  0.00000000E+00
  0.00000000E+00  0.00000000E+00  0.00000000E+00
  0.00000000E+00  0.00000000E+00  0.00000000E+00
  0.00000000E+00  0.00000000E+00  0.00000000E+00
  0.00000000E+00  0.00000000E+00  0.00000000E+00
  0.00000000E+00  0.00000000E+00  0.00000000E+00
  0.00000000E+00  0.00000000E+00  0.00000000E+00
  0.00000000E+00  0.00000000E+00  0.00000000E+00
  0.00000000E+00  0.00000000E+00  0.00000000E+00
  0.00000000E+00  0.00000000E+00  0.00000000E+00
  0.00000000E+00  0.00000000E+00  0.00000000E+00
  0.00000000E+00  0.00000000E+00  0.00000000E+00
  0.00000000E+00  0.00000000E+00  0.00000000E+00
  0.00000000E+00  0.00000000E+00  0.00000000E+00
  0.00000000E+00  0.00000000E+00  0.00000000E+00
  0.00000000E+00  0.00000000E+00  0.00000000E+00
  0.00000000E+00  0.00000000E+00  0.00000000E+00
  0.00000000E+00  0.00000000E+00  0.00000000E+00
  0.00000000E+00  0.00000000E+00  0.00000000E+00
  0.00000000E+00  0.00000000E+00  0.00000000E+00
  0.00000000E+00  0.00000000E+00  0.00000000E+00
  0.00000000E+00  0.00000000E+00  0.00000000E+00
  0.00000000E+00  0.00000000E+00  0.00000000E+00
  0.00000000E+00  0.00000000E+00  0.00000000E+00
  0.00000000E+00  0.00000000E+00  0.00000000E+00
  0.00000000E+00  0.00000000E+00  0.00000000E+00
  0.00000000E+00  0.00000000E+00  0.00000000E+00
  0.00000000E+00  0.00000000E+00  0.00000000E+00
  0.00000000E+00  0.00000000E+00  0.00000000E+00
  0.00000000E+00  0.00000000E+00  0.00000000E+00
  0.00000000E+00  0.00000000E+00  0.00000000E+00
  0.00000000E+00  0.00000000E+00  0.00000000E+00
  0.00000000E+00  0.00000000E+00  0.00000000E+00
  0.00000000E+00  0.00000000E+00  0.00000000E+00
  0.00000000E+00  0.00000000E+00  0.00000000E+00
  0.00000000E+00  0.00000000E+00  0.00000000E+00
  0.00000000E+00  0.00000000E+00  0.00000000E+00
  0.00000000E+00  0.00000000E+00  0.00000000E+00
  0.00000000E+00  0.00000000E+00  0.00000000E+00
  0.00000000E+00  0.00000000E+00  0.00000000E+00
  0.00000000E+00  0.00000000E+00  0.00000000E+00
  0.00000000E+00  0.00000000E+00  0.00000000E+00
  0.00000000E+00  0.00000000E+00  0.00000000E+00
  0.00000000E+00  0.00000000E+00  0.00000000E+00
  0.00000000E+00  0.00000000E+00  0.00000000E+00
  0.00000000E+00  0.00000000E+00  0.00000000E+00
