3_0                                     
   1.00000000000000     
     6.7385999999999999    0.0000000000000000    0.0000000000000000
     3.3693000000000000    5.8357989999999997    0.0000000000000000
     0.0000010000000000    0.0000000000000000   26.1140000000000008
   Ce   H    O 
    12     1    23
Selective dynamics
Direct
  0.3332199999999972  0.0000000000000000  0.0304000000000002   F   F   F
  0.6664099999999991  0.3332199999999972  0.0304000000000002   F   F   F
  0.0000000000000000  0.6664099999999991  0.0304000000000002   F   F   F
  0.6664099999999991  0.6664099999999991  0.1520000000000010   F   F   F
  0.3332199999999972  0.3332199999999972  0.1520000000000010   F   F   F
  0.0000000000000000  0.0000000000000000  0.1520000000000010   F   F   F
  0.6661995770318683  0.9982334560444741  0.2728507550019543   T   T   T
  0.3349844636904677  0.6659565453432350  0.2729127555781830   T   T   T
  0.9986802650997930  0.3345648700126347  0.2728969330327402   T   T   T
  0.0227833389079564  0.6776536990841393  0.3937102874496787   T   T   T
  0.2996042308176925  0.0221892883429504  0.3936585154171937   T   T   T
  0.6780447971474786  0.2988768836384494  0.3936068394867007   T   T   T
  0.3343188849910703  0.3329085100685205  0.4830413624104608   T   T   T
  0.0000000000000000  0.3332199999999972  0.0000000000000000   F   F   F
  0.6664099999999991  0.0000000000000000  0.0000000000000000   F   F   F
  0.3332199999999972  0.6664099999999991  0.0000000000000000   F   F   F
  0.0000000000000000  0.0000000000000000  0.0608000000000004   F   F   F
  0.6664099999999991  0.6664099999999991  0.0608000000000004   F   F   F
  0.3332199999999972  0.3332199999999972  0.0608000000000004   F   F   F
  0.6664100000000488  0.3332199999999972  0.1216000000000008   F   F   F
  0.3332199999999972  0.0000000000000000  0.1216000000000008   F   F   F
  0.0000000000000000  0.6664099999999991  0.1216000000000008   F   F   F
  0.0000000000000000  0.3332199999999972  0.1824000000000012   F   F   F
  0.6664099999999991  0.0000000000000000  0.1824000000000012   F   F   F
  0.3332199999999972  0.6664099999999991  0.1824000000000012   F   F   F
  0.9999740428050572  0.0000014176979448  0.2413868553631957   T   T   T
  0.6667181912996014  0.6661598998249758  0.2434229200940550   T   T   T
  0.3331095393785333  0.3331933308130104  0.2421820919881270   T   T   T
  0.6697970948435454  0.3203662110930736  0.3020162751698976   T   T   T
  0.0088389748471940  0.6702438228744469  0.3019722213353333   T   T   T
  0.3213669768526444  0.0085861032499039  0.3018857344747943   T   T   T
  0.6608879901982050  0.9820324867583423  0.3668292151294921   T   T   T
  0.3567653138557318  0.6608652596245435  0.3667532499479265   T   T   T
  0.9828913052933927  0.3548743521889577  0.3665494690150553   T   T   T
  0.9997365493268759  0.9993662551345182  0.4334862652739631   T   T   T
  0.3314740677095287  0.3332304797915313  0.4458696560120501   T   T   T
 
  0.00000000E+00  0.00000000E+00  0.00000000E+00
  0.00000000E+00  0.00000000E+00  0.00000000E+00
  0.00000000E+00  0.00000000E+00  0.00000000E+00
  0.00000000E+00  0.00000000E+00  0.00000000E+00
  0.00000000E+00  0.00000000E+00  0.00000000E+00
  0.00000000E+00  0.00000000E+00  0.00000000E+00
  0.00000000E+00  0.00000000E+00  0.00000000E+00
  0.00000000E+00  0.00000000E+00  0.00000000E+00
  0.00000000E+00  0.00000000E+00  0.00000000E+00
  0.00000000E+00  0.00000000E+00  0.00000000E+00
  0.00000000E+00  0.00000000E+00  0.00000000E+00
  0.00000000E+00  0.00000000E+00  0.00000000E+00
  0.00000000E+00  0.00000000E+00  0.00000000E+00
  0.00000000E+00  0.00000000E+00  0.00000000E+00
  0.00000000E+00  0.00000000E+00  0.00000000E+00
  0.00000000E+00  0.00000000E+00  0.00000000E+00
  0.00000000E+00  0.00000000E+00  0.00000000E+00
  0.00000000E+00  0.00000000E+00  0.00000000E+00
  0.00000000E+00  0.00000000E+00  0.00000000E+00
  0.00000000E+00  0.00000000E+00  0.00000000E+00
  0.00000000E+00  0.00000000E+00  0.00000000E+00
  0.00000000E+00  0.00000000E+00  0.00000000E+00
  0.00000000E+00  0.00000000E+00  0.00000000E+00
  0.00000000E+00  0.00000000E+00  0.00000000E+00
  0.00000000E+00  0.00000000E+00  0.00000000E+00
  0.00000000E+00  0.00000000E+00  0.00000000E+00
  0.00000000E+00  0.00000000E+00  0.00000000E+00
  0.00000000E+00  0.00000000E+00  0.00000000E+00
  0.00000000E+00  0.00000000E+00  0.00000000E+00
  0.00000000E+00  0.00000000E+00  0.00000000E+00
  0.00000000E+00  0.00000000E+00  0.00000000E+00
  0.00000000E+00  0.00000000E+00  0.00000000E+00
  0.00000000E+00  0.00000000E+00  0.00000000E+00
  0.00000000E+00  0.00000000E+00  0.00000000E+00
  0.00000000E+00  0.00000000E+00  0.00000000E+00
  0.00000000E+00  0.00000000E+00  0.00000000E+00
