comment                                 
   1.00000000000000     
     9.7226874999999993    3.3680377500000001    0.0000000000000000
    -7.7781500000000001    6.7360755000000001    0.0000000000000000
     0.0000002500000000    0.0000002500000000   26.1140000000000008
   Ce   H    O 
    28     1    56
Selective dynamics
Direct
  0.2230096376290192  0.0286522613956279  0.0304000000000002   F   F   F
  0.0801524947718733  0.6000808328241948  0.0304000000000002   F   F   F
  0.3658667804861651  0.4572236899670509  0.0304000000000002   F   F   F
  0.5087239233433017  0.8857951185384779  0.0304000000000002   F   F   F
  0.7944382090575858  0.7429379756813398  0.0304000000000002   F   F   F
  0.6515810662004500  0.3143665471099124  0.0304000000000002   F   F   F
  0.9372953519147337  0.1715094042527645  0.0304000000000002   F   F   F
  0.2706267949228391  0.8381836962877618  0.1520000000000010   F   F   F
  0.1277696520657015  0.4096122677163325  0.1520000000000010   F   F   F
  0.4134839377799864  0.2667551248591875  0.1520000000000010   F   F   F
  0.5563410806371221  0.6953265534306161  0.1520000000000010   F   F   F
  0.8420553663514165  0.5524694105734792  0.1520000000000010   F   F   F
  0.6991982234942702  0.1238979820020476  0.1520000000000010   F   F   F
  0.9849125092085558  0.9810408391449030  0.1520000000000010   F   F   F
  0.3175008226755852  0.6475856739901615  0.2725868127462910   T   T   T
  0.0320577292986116  0.7911012047018232  0.2733309091025393   T   T   T
  0.8894204109401255  0.3628142680763365  0.2717719094930713   T   T   T
  0.7474198869149106  0.9320114471517040  0.2733779936242995   T   T   T
  0.6037998921254488  0.5044414953043811  0.2729074332541609   T   T   T
  0.1752475969037339  0.2186587567442365  0.2728969874992645   T   T   T
  0.4631041938887109  0.0765533691081069  0.2720887215228637   T   T   T
  0.0800925060743678  0.6019334042918950  0.3926896430190868   T   T   T
  0.3617659027499914  0.4549316973418928  0.3927033808063279   T   T   T
  0.5089900867169299  0.8825349526720169  0.3929714257415629   T   T   T
  0.7876921741182610  0.7339402492392001  0.3951332271461690   T   T   T
  0.6536318773013573  0.3143444626532769  0.3929144339758120   T   T   T
  0.9340352301717632  0.1797768441784280  0.3914422896277903   T   T   T
  0.2361579492819440  0.0310491341044137  0.3919156510970523   T   T   T
  0.9980191659185306  0.9970599010201224  0.4755475394463759   T   T   T
  0.0325296340198450  0.7905722598154695  0.0000000000000000   F   F   F
  0.1753867768769908  0.2191436883868931  0.0000000000000000   F   F   F
  0.8896724911626990  0.3620008312440368  0.0000000000000000   F   F   F
  0.6039582054484143  0.5048579741011774  0.0000000000000000   F   F   F
  0.7468153483055601  0.9334294026726075  0.0000000000000000   F   F   F
  0.4611010625912755  0.0762865455297543  0.0000000000000000   F   F   F
  0.3182439197341296  0.6477151169583232  0.0000000000000000   F   F   F
  0.1277696412381881  0.4096122629758042  0.0608000000000004   F   F   F
  0.2706267840953345  0.8381836915472363  0.0608000000000004   F   F   F
  0.6991982126667595  0.1238979772615193  0.0608000000000004   F   F   F
  0.4134839269524733  0.2667551201186578  0.0608000000000004   F   F   F
  0.5563410698096196  0.6953265486900976  0.0608000000000004   F   F   F
  0.8420553555239058  0.5524694058329511  0.0608000000000004   F   F   F
  0.9849124983810426  0.9810408344043813  0.0608000000000004   F   F   F
  0.0801525055993863  0.6000808375647176  0.1216000000000008   F   F   F
  0.7944382198850937  0.7429379804218451  0.1216000000000008   F   F   F
  0.9372953627422480  0.1715094089932926  0.1216000000000008   F   F   F
  0.6515810770279699  0.3143665518504310  0.1216000000000008   F   F   F
  0.2230096484565323  0.0286522661361484  0.1216000000000008   F   F   F
  0.5087239341708081  0.8857951232789928  0.1216000000000008   F   F   F
  0.3658667913136774  0.4572236947075771  0.1216000000000008   F   F   F
  0.0325296556748711  0.7905722692965184  0.1824000000000012   F   F   F
  0.3182439413891556  0.6477151264393722  0.1824000000000012   F   F   F
  0.6039582271034410  0.5048579835822267  0.1824000000000012   F   F   F
  0.8896725128177327  0.3620008407250804  0.1824000000000012   F   F   F
  0.7468153699605794  0.9334294121536569  0.1824000000000012   F   F   F
  0.1753867985320099  0.2191436978679420  0.1824000000000012   F   F   F
  0.4611010842462948  0.0762865550108031  0.1824000000000012   F   F   F
  0.1281388260252077  0.4107942940171845  0.2423774196870865   T   T   T
  0.2715881377633419  0.8383046671695108  0.2426515217588765   T   T   T
  0.4137913477417230  0.2673930969903123  0.2423508887559492   T   T   T
  0.6989296963869512  0.1227916561509584  0.2423037102168173   T   T   T
  0.8420531177648350  0.5523054681450568  0.2421083257516430   T   T   T
  0.5548420538566315  0.6940733972813429  0.2426923992039063   T   T   T
  0.9859972017990896  0.9813966466328911  0.2430027024526446   T   T   T
  0.5107523414701802  0.8844043787079323  0.3039411434787979   T   T   T
  0.0778855540353258  0.6021087168120940  0.3035040519472985   T   T   T
  0.3622676401568380  0.4545446309944063  0.3040990109821721   T   T   T
  0.7932269786806713  0.7405038515226712  0.3022726480799201   T   T   T
  0.6523406090309030  0.3141276305983626  0.3028728862949084   T   T   T
  0.9377766705113553  0.1733236807018057  0.3025431185926838   T   T   T
  0.2279106559106809  0.0310508043611862  0.3030446129369382   T   T   T
  0.3137962381424514  0.6463249959548174  0.3613791540965476   T   T   T
  0.0395922051183996  0.8002239971564168  0.3640417148647229   T   T   T
  0.8904478135569568  0.3622920462883598  0.3607257542152469   T   T   T
  0.5965931166174008  0.4957166821818675  0.3628499378041614   T   T   T
  0.7542087541598151  0.9406697975538010  0.3638594415867715   T   T   T
  0.1676992505402882  0.2096983683151151  0.3634453207605938   T   T   T
  0.4654830117780306  0.0760178469740162  0.3619546594019767   T   T   T
  0.1251470116855413  0.4089826803474534  0.4224441389191221   T   T   T
  0.2771178662301865  0.8414156804329772  0.4235297399071270   T   T   T
  0.7031306961188036  0.1288194659858800  0.4236036470371137   T   T   T
  0.4108024080811541  0.2603629536667368  0.4234976931998740   T   T   T
  0.5379373511501784  0.6888771899498159  0.4236971586916614   T   T   T
  0.8464110804796160  0.5401730048213740  0.4240641125015990   T   T   T
  0.9931948990096826  0.9908402549849762  0.4383612412035051   T   T   T
 
  0.00000000E+00  0.00000000E+00  0.00000000E+00
  0.00000000E+00  0.00000000E+00  0.00000000E+00
  0.00000000E+00  0.00000000E+00  0.00000000E+00
  0.00000000E+00  0.00000000E+00  0.00000000E+00
  0.00000000E+00  0.00000000E+00  0.00000000E+00
  0.00000000E+00  0.00000000E+00  0.00000000E+00
  0.00000000E+00  0.00000000E+00  0.00000000E+00
  0.00000000E+00  0.00000000E+00  0.00000000E+00
  0.00000000E+00  0.00000000E+00  0.00000000E+00
  0.00000000E+00  0.00000000E+00  0.00000000E+00
  0.00000000E+00  0.00000000E+00  0.00000000E+00
  0.00000000E+00  0.00000000E+00  0.00000000E+00
  0.00000000E+00  0.00000000E+00  0.00000000E+00
  0.00000000E+00  0.00000000E+00  0.00000000E+00
  0.00000000E+00  0.00000000E+00  0.00000000E+00
  0.00000000E+00  0.00000000E+00  0.00000000E+00
  0.00000000E+00  0.00000000E+00  0.00000000E+00
  0.00000000E+00  0.00000000E+00  0.00000000E+00
  0.00000000E+00  0.00000000E+00  0.00000000E+00
  0.00000000E+00  0.00000000E+00  0.00000000E+00
  0.00000000E+00  0.00000000E+00  0.00000000E+00
  0.00000000E+00  0.00000000E+00  0.00000000E+00
  0.00000000E+00  0.00000000E+00  0.00000000E+00
  0.00000000E+00  0.00000000E+00  0.00000000E+00
  0.00000000E+00  0.00000000E+00  0.00000000E+00
  0.00000000E+00  0.00000000E+00  0.00000000E+00
  0.00000000E+00  0.00000000E+00  0.00000000E+00
  0.00000000E+00  0.00000000E+00  0.00000000E+00
  0.00000000E+00  0.00000000E+00  0.00000000E+00
  0.00000000E+00  0.00000000E+00  0.00000000E+00
  0.00000000E+00  0.00000000E+00  0.00000000E+00
  0.00000000E+00  0.00000000E+00  0.00000000E+00
  0.00000000E+00  0.00000000E+00  0.00000000E+00
  0.00000000E+00  0.00000000E+00  0.00000000E+00
  0.00000000E+00  0.00000000E+00  0.00000000E+00
  0.00000000E+00  0.00000000E+00  0.00000000E+00
  0.00000000E+00  0.00000000E+00  0.00000000E+00
  0.00000000E+00  0.00000000E+00  0.00000000E+00
  0.00000000E+00  0.00000000E+00  0.00000000E+00
  0.00000000E+00  0.00000000E+00  0.00000000E+00
  0.00000000E+00  0.00000000E+00  0.00000000E+00
  0.00000000E+00  0.00000000E+00  0.00000000E+00
  0.00000000E+00  0.00000000E+00  0.00000000E+00
  0.00000000E+00  0.00000000E+00  0.00000000E+00
  0.00000000E+00  0.00000000E+00  0.00000000E+00
  0.00000000E+00  0.00000000E+00  0.00000000E+00
  0.00000000E+00  0.00000000E+00  0.00000000E+00
  0.00000000E+00  0.00000000E+00  0.00000000E+00
  0.00000000E+00  0.00000000E+00  0.00000000E+00
  0.00000000E+00  0.00000000E+00  0.00000000E+00
  0.00000000E+00  0.00000000E+00  0.00000000E+00
  0.00000000E+00  0.00000000E+00  0.00000000E+00
  0.00000000E+00  0.00000000E+00  0.00000000E+00
  0.00000000E+00  0.00000000E+00  0.00000000E+00
  0.00000000E+00  0.00000000E+00  0.00000000E+00
  0.00000000E+00  0.00000000E+00  0.00000000E+00
  0.00000000E+00  0.00000000E+00  0.00000000E+00
  0.00000000E+00  0.00000000E+00  0.00000000E+00
  0.00000000E+00  0.00000000E+00  0.00000000E+00
  0.00000000E+00  0.00000000E+00  0.00000000E+00
  0.00000000E+00  0.00000000E+00  0.00000000E+00
  0.00000000E+00  0.00000000E+00  0.00000000E+00
  0.00000000E+00  0.00000000E+00  0.00000000E+00
  0.00000000E+00  0.00000000E+00  0.00000000E+00
  0.00000000E+00  0.00000000E+00  0.00000000E+00
  0.00000000E+00  0.00000000E+00  0.00000000E+00
  0.00000000E+00  0.00000000E+00  0.00000000E+00
  0.00000000E+00  0.00000000E+00  0.00000000E+00
  0.00000000E+00  0.00000000E+00  0.00000000E+00
  0.00000000E+00  0.00000000E+00  0.00000000E+00
  0.00000000E+00  0.00000000E+00  0.00000000E+00
  0.00000000E+00  0.00000000E+00  0.00000000E+00
  0.00000000E+00  0.00000000E+00  0.00000000E+00
  0.00000000E+00  0.00000000E+00  0.00000000E+00
  0.00000000E+00  0.00000000E+00  0.00000000E+00
  0.00000000E+00  0.00000000E+00  0.00000000E+00
  0.00000000E+00  0.00000000E+00  0.00000000E+00
  0.00000000E+00  0.00000000E+00  0.00000000E+00
  0.00000000E+00  0.00000000E+00  0.00000000E+00
  0.00000000E+00  0.00000000E+00  0.00000000E+00
  0.00000000E+00  0.00000000E+00  0.00000000E+00
  0.00000000E+00  0.00000000E+00  0.00000000E+00
  0.00000000E+00  0.00000000E+00  0.00000000E+00
  0.00000000E+00  0.00000000E+00  0.00000000E+00
  0.00000000E+00  0.00000000E+00  0.00000000E+00
