cos16n                                  
   1.00000000000000     
    15.5563000000000002    0.0000000000000000    0.0000000000000000
    -7.7781500000000001   13.4721510000000002    0.0000000000000000
     0.0000010000000000    0.0000010000000000   26.1140000000000008
   C    Ce   H    O 
     1    64     1   129
Selective dynamics
Direct
  0.4412327389639275  0.5806293776584041  0.5029126522998283   T   T   T
  0.4166700000000034  0.5833299999999966  0.0304000000000002   F   F   F
  0.4166700000000034  0.8333299999999966  0.0304000000000002   F   F   F
  0.6666700000000034  0.8333299999999966  0.0304000000000002   F   F   F
  0.6666700000000034  0.5833299999999966  0.0304000000000002   F   F   F
  0.9166700000000044  0.5833299999999966  0.0304000000000002   F   F   F
  0.9166700000000034  0.8333299999999966  0.0304000000000002   F   F   F
  0.1666700000000034  0.3333299999999965  0.0304000000000002   F   F   F
  0.1666700000000043  0.0833299999999966  0.0304000000000002   F   F   F
  0.4166700000000038  0.0833299999999966  0.0304000000000002   F   F   F
  0.4166700000000033  0.3333299999999965  0.0304000000000002   F   F   F
  0.6666700000000034  0.3333299999999965  0.0304000000000002   F   F   F
  0.6666700000000036  0.0833299999999966  0.0304000000000002   F   F   F
  0.9166700000000105  0.0833299999999966  0.0304000000000002   F   F   F
  0.9166700000000034  0.3333299999999965  0.0304000000000002   F   F   F
  0.1666699999999937  0.8333299999999966  0.0304000000000002   F   F   F
  0.1666700000000034  0.5833299999999966  0.0304000000000002   F   F   F
  0.0000000000000005  0.5000000000000000  0.1520000000000010   F   F   F
  0.0000000000000000  0.7500000000000000  0.1520000000000010   F   F   F
  0.2499999999999998  0.7500000000000000  0.1520000000000010   F   F   F
  0.2500000000000038  0.5000000000000000  0.1520000000000010   F   F   F
  0.5000000000000000  0.5000000000000000  0.1520000000000010   F   F   F
  0.5000000000000000  0.7500000000000000  0.1520000000000010   F   F   F
  0.7500000000000000  0.7500000000000000  0.1520000000000010   F   F   F
  0.7500000000000000  0.5000000000000000  0.1520000000000010   F   F   F
  0.0000000000000000  0.0000000000000000  0.1520000000000010   F   F   F
  0.9999999999999940  0.2500000000000001  0.1520000000000010   F   F   F
  0.2500000000000001  0.2500000000000001  0.1520000000000010   F   F   F
  0.2500000000000169  0.0000000000000000  0.1520000000000010   F   F   F
  0.5000000000000000  0.0000000000000000  0.1520000000000010   F   F   F
  0.5000000000000000  0.2500000000000001  0.1520000000000010   F   F   F
  0.7500000000000000  0.2500000000000001  0.1520000000000010   F   F   F
  0.7500000000000000  0.0000000000000000  0.1520000000000010   F   F   F
  0.0827850451669669  0.4170225593444299  0.2723218937542370   T   T   T
  0.5842648134931883  0.4169814390489678  0.2722903197294576   T   T   T
  0.3331485407855330  0.6660980737032707  0.2729507812807664   T   T   T
  0.5829261817343790  0.6660286484270984  0.2729822737873526   T   T   T
  0.0834711854743569  0.6671861710516176  0.2728446040518646   T   T   T
  0.8338336343998570  0.6671880956620594  0.2727981756910874   T   T   T
  0.8332585985316537  0.9164163445222095  0.2728371625141442   T   T   T
  0.3332505704038362  0.9164463706449461  0.2728716840337828   T   T   T
  0.5831233236098278  0.9162449330890278  0.2728949358554758   T   T   T
  0.8334290119207983  0.4167234013389590  0.2730042548382181   T   T   T
  0.8335308829541087  0.1667364743747545  0.2730955053254508   T   T   T
  0.5832587213228425  0.1667208018791934  0.2731292097044711   T   T   T
  0.3332213738188503  0.4164019815623102  0.2735068111333238   T   T   T
  0.0836570958932373  0.9171782762096167  0.2734404133156466   T   T   T
  0.3326390210744997  0.1665678476789790  0.2740001932105308   T   T   T
  0.0839030167432732  0.1665547983343138  0.2740005722350706   T   T   T
  0.1611889913915318  0.3369104999306756  0.3923325759039663   T   T   T
  0.4257928674560940  0.3367735817125726  0.3922614534308579   T   T   T
  0.4169586662795025  0.8329098452108583  0.3927277577697177   T   T   T
  0.6660405986320210  0.8327374576884811  0.3926772504591973   T   T   T
  0.4158666529982765  0.5824419635706032  0.3938461338785674   T   T   T
  0.1659613158611794  0.5846538353278434  0.3929913170271543   T   T   T
  0.6689267632304235  0.5846166496136974  0.3928655143556630   T   T   T
  0.6665365202193925  0.0828863749915938  0.3930160422368612   T   T   T
  0.9151314702605827  0.8325272606104613  0.3932948644476612   T   T   T
  0.1676431701016467  0.8325635750130960  0.3933609351312081   T   T   T
  0.6684539033524907  0.3336750698052230  0.3933606317804038   T   T   T
  0.9154040950174369  0.3337025190807716  0.3933819152297389   T   T   T
  0.4167705071443011  0.0818025467599387  0.3935249477471651   T   T   T
  0.9151741736087712  0.0818568583650696  0.3934753855932876   T   T   T
  0.9174628020662686  0.5846254649473224  0.3936548010791545   T   T   T
  0.1637751531224990  0.0774609278789720  0.3960723267026665   T   T   T
  0.2557001958751232  0.2620681500296970  0.4765161062869661   T   T   T
  0.0833299999999966  0.6666700000000034  0.0000000000000000   F   F   F
  0.0833299999999947  0.9166700000000034  0.0000000000000000   F   F   F
  0.3333299999999966  0.9166700000000034  0.0000000000000000   F   F   F
  0.3333299999999966  0.4166700000000034  0.0000000000000000   F   F   F
  0.8333299999999966  0.6666700000000034  0.0000000000000000   F   F   F
  0.5833299999999966  0.6666700000000034  0.0000000000000000   F   F   F
  0.5833299999999966  0.9166700000000034  0.0000000000000000   F   F   F
  0.8333299999999966  0.9166700000000034  0.0000000000000000   F   F   F
  0.3333299999999966  0.1666700000000034  0.0000000000000000   F   F   F
  0.8333300000000031  0.1666700000000034  0.0000000000000000   F   F   F
  0.5833299999999966  0.1666700000000034  0.0000000000000000   F   F   F
  0.5833299999999966  0.4166700000000034  0.0000000000000000   F   F   F
  0.0833299999999966  0.1666700000000034  0.0000000000000000   F   F   F
  0.8333299999999976  0.4166700000000034  0.0000000000000000   F   F   F
  0.3333299999999966  0.6666700000000034  0.0000000000000000   F   F   F
  0.0833299999999966  0.4166700000000034  0.0000000000000000   F   F   F
  0.2499999999999986  0.4999999999999973  0.0608000000000004   F   F   F
 -0.0000000000000016  0.4999999999999973  0.0608000000000004   F   F   F
  0.9999999999999939  0.7500000000000002  0.0608000000000004   F   F   F
  0.2500000000000000  0.7500000000000002  0.0608000000000004   F   F   F
  0.7500000000000068  0.4999999999999973  0.0608000000000004   F   F   F
  0.5000000000000072  0.4999999999999973  0.0608000000000004   F   F   F
  0.5000000000000002  0.7500000000000002  0.0608000000000004   F   F   F
  0.7500000000000002  0.7500000000000002  0.0608000000000004   F   F   F
  0.2500000000000000  0.0000000000000000  0.0608000000000004   F   F   F
  0.0000000000000000  0.0000000000000000  0.0608000000000004   F   F   F
 -0.0000000000000002  0.2500000000000000  0.0608000000000004   F   F   F
  0.2500000000000000  0.2500000000000000  0.0608000000000004   F   F   F
  0.7500000000000000  0.0000000000000000  0.0608000000000004   F   F   F
  0.5000000000000000  0.0000000000000000  0.0608000000000004   F   F   F
  0.5000000000000000  0.2500000000000000  0.0608000000000004   F   F   F
  0.7500000000000000  0.2500000000000000  0.0608000000000004   F   F   F
  0.1666700000000052  0.0833299999999973  0.1216000000000008   F   F   F
  0.9166700000000023  0.8333299999999765  0.1216000000000008   F   F   F
  0.9166700000000034  0.5833299999999964  0.1216000000000008   F   F   F
  0.6666700000000303  0.5833299999999964  0.1216000000000008   F   F   F
  0.1666700000000034  0.3333299999999966  0.1216000000000008   F   F   F
  0.6666700000000034  0.3333299999999966  0.1216000000000008   F   F   F
  0.9166700000000034  0.3333299999999966  0.1216000000000008   F   F   F
  0.9166700000000060  0.0833299999999973  0.1216000000000008   F   F   F
  0.6666700000000014  0.0833299999999973  0.1216000000000008   F   F   F
  0.4166700000000034  0.3333299999999966  0.1216000000000008   F   F   F
  0.1666700000000001  0.8333299999999765  0.1216000000000008   F   F   F
  0.4166700000000002  0.8333299999999765  0.1216000000000008   F   F   F
  0.4166700000000071  0.5833299999999964  0.1216000000000008   F   F   F
  0.4166700000000275  0.0833299999999973  0.1216000000000008   F   F   F
  0.1666700000000044  0.5833299999999964  0.1216000000000008   F   F   F
  0.6666700000000034  0.8333299999999765  0.1216000000000008   F   F   F
  0.0833299999999966  0.6666700000000036  0.1824000000000012   F   F   F
  0.3333299999999991  0.6666700000000036  0.1824000000000012   F   F   F
  0.3333299999999966  0.9166700000000034  0.1824000000000012   F   F   F
  0.0833299999999965  0.9166700000000034  0.1824000000000012   F   F   F
  0.5833299999999990  0.6666700000000036  0.1824000000000012   F   F   F
  0.8333300000000047  0.6666700000000036  0.1824000000000012   F   F   F
  0.8333299999999993  0.9166700000000034  0.1824000000000012   F   F   F
  0.5833299999999966  0.9166700000000034  0.1824000000000012   F   F   F
  0.0833299999999966  0.1666700000000034  0.1824000000000012   F   F   F
  0.3333299999999997  0.1666700000000034  0.1824000000000012   F   F   F
  0.3333299999999980  0.4166700000000034  0.1824000000000012   F   F   F
  0.0833299999999967  0.4166700000000034  0.1824000000000012   F   F   F
  0.5833299999999966  0.1666700000000034  0.1824000000000012   F   F   F
  0.8333300000000103  0.1666700000000034  0.1824000000000012   F   F   F
  0.8333300000000049  0.4166700000000034  0.1824000000000012   F   F   F
  0.5833299999999993  0.4166700000000034  0.1824000000000012   F   F   F
  0.2500965488945151  0.5002332807880285  0.2426138020230788   T   T   T
  0.5001730096261373  0.5002645861049865  0.2424866574333495   T   T   T
  0.7502304039274357  0.5000446034667841  0.2426325325379253   T   T   T
  0.9999109556539829  0.5001497901914087  0.2425074330504123   T   T   T
  0.7498171597511003  0.7498720284478355  0.2426701146939495   T   T   T
  0.2501210910043373  0.7498559901361237  0.2426547523565032   T   T   T
  0.4993730595169825  0.7487360864647679  0.2426963233430971   T   T   T
  0.0001219711716625  0.7501105439850041  0.2428147946194746   T   T   T
  0.7498429095526749  0.2496914625869246  0.2427552824329634   T   T   T
  0.9996051090415271  0.0002077081802610  0.2427238323981079   T   T   T
  0.2505666627230914  0.0001792293542930  0.2428773163291500   T   T   T
  0.5000555998233914  0.2497604974841703  0.2429597244559084   T   T   T
  0.9998218464976291  0.2497824182465805  0.2429398020434311   T   T   T
  0.4998610616313643  0.0002603535073110  0.2428786180421923   T   T   T
  0.7503349473708136  0.0001333481294409  0.2430130032279771   T   T   T
  0.2503333701568281  0.2506768341951726  0.2435335548619490   T   T   T
  0.1661496485638549  0.0824542438250347  0.3030338108850724   T   T   T
  0.4171528095803730  0.8322226685371806  0.3033921845418762   T   T   T
  0.6648380999883361  0.8318987322653160  0.3034145236347709   T   T   T
  0.4192749841052912  0.3355034977301572  0.3034755250239903   T   T   T
  0.1662303499202221  0.3355708298423605  0.3036013172566625   T   T   T
  0.1667339507037675  0.5837184340083541  0.3035817064992334   T   T   T
  0.6670002290101944  0.5837296024927047  0.3035114403750113   T   T   T
  0.9164059186134650  0.8336497324098840  0.3035437803503279   T   T   T
  0.1675413987921741  0.8334710525082871  0.3036455513615805   T   T   T
  0.9160674500110629  0.3332433780591845  0.3036019815968750   T   T   T
  0.6673768197850459  0.3331473740963448  0.3037567383326261   T   T   T
  0.9168441488808465  0.5834808865203526  0.3037617228203437   T   T   T
  0.6665154647947946  0.0830322849479724  0.3037700860855426   T   T   T
  0.4156584051977514  0.0836688011174263  0.3046379543225222   T   T   T
  0.9180335980312054  0.0835776086278330  0.3045888922933007   T   T   T
  0.4154526662308927  0.5808723250979521  0.3044413557044061   T   T   T
  0.3351976768940912  0.9149517411058133  0.3617016249589751   T   T   T
  0.8298480940964360  0.9148438418944452  0.3616246230556430   T   T   T
  0.0814901284339457  0.4177783675721980  0.3621597216311017   T   T   T
  0.5862198274673933  0.4177547532749036  0.3620070435151299   T   T   T
  0.0839325600750538  0.6671112887333940  0.3624758979317196   T   T   T
  0.8333886894422682  0.6671873589717404  0.3622687933615036   T   T   T
  0.3335448544947787  0.6656302252430503  0.3628257306477519   T   T   T
  0.5820348987423217  0.6653494775596275  0.3629845481305979   T   T   T
  0.5832723612375781  0.9163278805625460  0.3625410607499212   T   T   T
  0.5836141507125984  0.1664999193405301  0.3628499236481117   T   T   T
  0.8330806651798055  0.1666091262710167  0.3626735723818553   T   T   T
  0.8336057463758653  0.4169054093743038  0.3628967531406236   T   T   T
  0.0811505247364271  0.9114056156217220  0.3634398950740173   T   T   T
  0.3305524445454354  0.4107207311064702  0.3644768291253205   T   T   T
  0.3362724142608352  0.1732951023143357  0.3646020715695986   T   T   T
  0.0865767879054165  0.1731099457162263  0.3646556948554857   T   T   T
  0.2468822894862140  0.4987631324392321  0.4227383927902406   T   T   T
  0.5026072719306598  0.4984287408849047  0.4232112516834924   T   T   T
  0.5000218813730127  0.7497324566813632  0.4229721106395027   T   T   T
  0.7495305862213856  0.9998910836617466  0.4230458877462396   T   T   T
  0.5007104052328333  0.9997204959470742  0.4230018831754978   T   T   T
  0.2503012824480026  0.7489887484971973  0.4231690362470018   T   T   T
  0.7488391525090546  0.7488412735103945  0.4231787559540769   T   T   T
  0.0004852552943860  0.5014706169344720  0.4233897111353244   T   T   T
  0.7508678594230208  0.5011629250721931  0.4232462214297892   T   T   T
  0.7502479204641577  0.2503456545146819  0.4233428604038224   T   T   T
  0.9993269662907917  0.2536991984038531  0.4240549324711761   T   T   T
  0.5043863215715546  0.2537403067895035  0.4238905426600679   T   T   T
  0.9984218639641530  0.7468045579742570  0.4240592017244555   T   T   T
  0.2572264387871662  0.9944609955082708  0.4243034605219098   T   T   T
  0.9874876070577664  0.9939090208815131  0.4241268819544980   T   T   T
  0.2536778483199335  0.2580151537193470  0.4393007199156435   T   T   T
  0.4663014196020873  0.5800761099414331  0.5439900287323581   T   T   T
 
  0.00000000E+00  0.00000000E+00  0.00000000E+00
  0.00000000E+00  0.00000000E+00  0.00000000E+00
  0.00000000E+00  0.00000000E+00  0.00000000E+00
  0.00000000E+00  0.00000000E+00  0.00000000E+00
  0.00000000E+00  0.00000000E+00  0.00000000E+00
  0.00000000E+00  0.00000000E+00  0.00000000E+00
  0.00000000E+00  0.00000000E+00  0.00000000E+00
  0.00000000E+00  0.00000000E+00  0.00000000E+00
  0.00000000E+00  0.00000000E+00  0.00000000E+00
  0.00000000E+00  0.00000000E+00  0.00000000E+00
  0.00000000E+00  0.00000000E+00  0.00000000E+00
  0.00000000E+00  0.00000000E+00  0.00000000E+00
  0.00000000E+00  0.00000000E+00  0.00000000E+00
  0.00000000E+00  0.00000000E+00  0.00000000E+00
  0.00000000E+00  0.00000000E+00  0.00000000E+00
  0.00000000E+00  0.00000000E+00  0.00000000E+00
  0.00000000E+00  0.00000000E+00  0.00000000E+00
  0.00000000E+00  0.00000000E+00  0.00000000E+00
  0.00000000E+00  0.00000000E+00  0.00000000E+00
  0.00000000E+00  0.00000000E+00  0.00000000E+00
  0.00000000E+00  0.00000000E+00  0.00000000E+00
  0.00000000E+00  0.00000000E+00  0.00000000E+00
  0.00000000E+00  0.00000000E+00  0.00000000E+00
  0.00000000E+00  0.00000000E+00  0.00000000E+00
  0.00000000E+00  0.00000000E+00  0.00000000E+00
  0.00000000E+00  0.00000000E+00  0.00000000E+00
  0.00000000E+00  0.00000000E+00  0.00000000E+00
  0.00000000E+00  0.00000000E+00  0.00000000E+00
  0.00000000E+00  0.00000000E+00  0.00000000E+00
  0.00000000E+00  0.00000000E+00  0.00000000E+00
  0.00000000E+00  0.00000000E+00  0.00000000E+00
  0.00000000E+00  0.00000000E+00  0.00000000E+00
  0.00000000E+00  0.00000000E+00  0.00000000E+00
  0.00000000E+00  0.00000000E+00  0.00000000E+00
  0.00000000E+00  0.00000000E+00  0.00000000E+00
  0.00000000E+00  0.00000000E+00  0.00000000E+00
  0.00000000E+00  0.00000000E+00  0.00000000E+00
  0.00000000E+00  0.00000000E+00  0.00000000E+00
  0.00000000E+00  0.00000000E+00  0.00000000E+00
  0.00000000E+00  0.00000000E+00  0.00000000E+00
  0.00000000E+00  0.00000000E+00  0.00000000E+00
  0.00000000E+00  0.00000000E+00  0.00000000E+00
  0.00000000E+00  0.00000000E+00  0.00000000E+00
  0.00000000E+00  0.00000000E+00  0.00000000E+00
  0.00000000E+00  0.00000000E+00  0.00000000E+00
  0.00000000E+00  0.00000000E+00  0.00000000E+00
  0.00000000E+00  0.00000000E+00  0.00000000E+00
  0.00000000E+00  0.00000000E+00  0.00000000E+00
  0.00000000E+00  0.00000000E+00  0.00000000E+00
  0.00000000E+00  0.00000000E+00  0.00000000E+00
  0.00000000E+00  0.00000000E+00  0.00000000E+00
  0.00000000E+00  0.00000000E+00  0.00000000E+00
  0.00000000E+00  0.00000000E+00  0.00000000E+00
  0.00000000E+00  0.00000000E+00  0.00000000E+00
  0.00000000E+00  0.00000000E+00  0.00000000E+00
  0.00000000E+00  0.00000000E+00  0.00000000E+00
  0.00000000E+00  0.00000000E+00  0.00000000E+00
  0.00000000E+00  0.00000000E+00  0.00000000E+00
  0.00000000E+00  0.00000000E+00  0.00000000E+00
  0.00000000E+00  0.00000000E+00  0.00000000E+00
  0.00000000E+00  0.00000000E+00  0.00000000E+00
  0.00000000E+00  0.00000000E+00  0.00000000E+00
  0.00000000E+00  0.00000000E+00  0.00000000E+00
  0.00000000E+00  0.00000000E+00  0.00000000E+00
  0.00000000E+00  0.00000000E+00  0.00000000E+00
  0.00000000E+00  0.00000000E+00  0.00000000E+00
  0.00000000E+00  0.00000000E+00  0.00000000E+00
  0.00000000E+00  0.00000000E+00  0.00000000E+00
  0.00000000E+00  0.00000000E+00  0.00000000E+00
  0.00000000E+00  0.00000000E+00  0.00000000E+00
  0.00000000E+00  0.00000000E+00  0.00000000E+00
  0.00000000E+00  0.00000000E+00  0.00000000E+00
  0.00000000E+00  0.00000000E+00  0.00000000E+00
  0.00000000E+00  0.00000000E+00  0.00000000E+00
  0.00000000E+00  0.00000000E+00  0.00000000E+00
  0.00000000E+00  0.00000000E+00  0.00000000E+00
  0.00000000E+00  0.00000000E+00  0.00000000E+00
  0.00000000E+00  0.00000000E+00  0.00000000E+00
  0.00000000E+00  0.00000000E+00  0.00000000E+00
  0.00000000E+00  0.00000000E+00  0.00000000E+00
  0.00000000E+00  0.00000000E+00  0.00000000E+00
  0.00000000E+00  0.00000000E+00  0.00000000E+00
  0.00000000E+00  0.00000000E+00  0.00000000E+00
  0.00000000E+00  0.00000000E+00  0.00000000E+00
  0.00000000E+00  0.00000000E+00  0.00000000E+00
  0.00000000E+00  0.00000000E+00  0.00000000E+00
  0.00000000E+00  0.00000000E+00  0.00000000E+00
  0.00000000E+00  0.00000000E+00  0.00000000E+00
  0.00000000E+00  0.00000000E+00  0.00000000E+00
  0.00000000E+00  0.00000000E+00  0.00000000E+00
  0.00000000E+00  0.00000000E+00  0.00000000E+00
  0.00000000E+00  0.00000000E+00  0.00000000E+00
  0.00000000E+00  0.00000000E+00  0.00000000E+00
  0.00000000E+00  0.00000000E+00  0.00000000E+00
  0.00000000E+00  0.00000000E+00  0.00000000E+00
  0.00000000E+00  0.00000000E+00  0.00000000E+00
  0.00000000E+00  0.00000000E+00  0.00000000E+00
  0.00000000E+00  0.00000000E+00  0.00000000E+00
  0.00000000E+00  0.00000000E+00  0.00000000E+00
  0.00000000E+00  0.00000000E+00  0.00000000E+00
  0.00000000E+00  0.00000000E+00  0.00000000E+00
  0.00000000E+00  0.00000000E+00  0.00000000E+00
  0.00000000E+00  0.00000000E+00  0.00000000E+00
  0.00000000E+00  0.00000000E+00  0.00000000E+00
  0.00000000E+00  0.00000000E+00  0.00000000E+00
  0.00000000E+00  0.00000000E+00  0.00000000E+00
  0.00000000E+00  0.00000000E+00  0.00000000E+00
  0.00000000E+00  0.00000000E+00  0.00000000E+00
  0.00000000E+00  0.00000000E+00  0.00000000E+00
  0.00000000E+00  0.00000000E+00  0.00000000E+00
  0.00000000E+00  0.00000000E+00  0.00000000E+00
  0.00000000E+00  0.00000000E+00  0.00000000E+00
  0.00000000E+00  0.00000000E+00  0.00000000E+00
  0.00000000E+00  0.00000000E+00  0.00000000E+00
  0.00000000E+00  0.00000000E+00  0.00000000E+00
  0.00000000E+00  0.00000000E+00  0.00000000E+00
  0.00000000E+00  0.00000000E+00  0.00000000E+00
  0.00000000E+00  0.00000000E+00  0.00000000E+00
  0.00000000E+00  0.00000000E+00  0.00000000E+00
  0.00000000E+00  0.00000000E+00  0.00000000E+00
  0.00000000E+00  0.00000000E+00  0.00000000E+00
  0.00000000E+00  0.00000000E+00  0.00000000E+00
  0.00000000E+00  0.00000000E+00  0.00000000E+00
  0.00000000E+00  0.00000000E+00  0.00000000E+00
  0.00000000E+00  0.00000000E+00  0.00000000E+00
  0.00000000E+00  0.00000000E+00  0.00000000E+00
  0.00000000E+00  0.00000000E+00  0.00000000E+00
  0.00000000E+00  0.00000000E+00  0.00000000E+00
  0.00000000E+00  0.00000000E+00  0.00000000E+00
  0.00000000E+00  0.00000000E+00  0.00000000E+00
  0.00000000E+00  0.00000000E+00  0.00000000E+00
  0.00000000E+00  0.00000000E+00  0.00000000E+00
  0.00000000E+00  0.00000000E+00  0.00000000E+00
  0.00000000E+00  0.00000000E+00  0.00000000E+00
  0.00000000E+00  0.00000000E+00  0.00000000E+00
  0.00000000E+00  0.00000000E+00  0.00000000E+00
  0.00000000E+00  0.00000000E+00  0.00000000E+00
  0.00000000E+00  0.00000000E+00  0.00000000E+00
  0.00000000E+00  0.00000000E+00  0.00000000E+00
  0.00000000E+00  0.00000000E+00  0.00000000E+00
  0.00000000E+00  0.00000000E+00  0.00000000E+00
  0.00000000E+00  0.00000000E+00  0.00000000E+00
  0.00000000E+00  0.00000000E+00  0.00000000E+00
  0.00000000E+00  0.00000000E+00  0.00000000E+00
  0.00000000E+00  0.00000000E+00  0.00000000E+00
  0.00000000E+00  0.00000000E+00  0.00000000E+00
  0.00000000E+00  0.00000000E+00  0.00000000E+00
  0.00000000E+00  0.00000000E+00  0.00000000E+00
  0.00000000E+00  0.00000000E+00  0.00000000E+00
  0.00000000E+00  0.00000000E+00  0.00000000E+00
  0.00000000E+00  0.00000000E+00  0.00000000E+00
  0.00000000E+00  0.00000000E+00  0.00000000E+00
  0.00000000E+00  0.00000000E+00  0.00000000E+00
  0.00000000E+00  0.00000000E+00  0.00000000E+00
  0.00000000E+00  0.00000000E+00  0.00000000E+00
  0.00000000E+00  0.00000000E+00  0.00000000E+00
  0.00000000E+00  0.00000000E+00  0.00000000E+00
  0.00000000E+00  0.00000000E+00  0.00000000E+00
  0.00000000E+00  0.00000000E+00  0.00000000E+00
  0.00000000E+00  0.00000000E+00  0.00000000E+00
  0.00000000E+00  0.00000000E+00  0.00000000E+00
  0.00000000E+00  0.00000000E+00  0.00000000E+00
  0.00000000E+00  0.00000000E+00  0.00000000E+00
  0.00000000E+00  0.00000000E+00  0.00000000E+00
  0.00000000E+00  0.00000000E+00  0.00000000E+00
  0.00000000E+00  0.00000000E+00  0.00000000E+00
  0.00000000E+00  0.00000000E+00  0.00000000E+00
  0.00000000E+00  0.00000000E+00  0.00000000E+00
  0.00000000E+00  0.00000000E+00  0.00000000E+00
  0.00000000E+00  0.00000000E+00  0.00000000E+00
  0.00000000E+00  0.00000000E+00  0.00000000E+00
  0.00000000E+00  0.00000000E+00  0.00000000E+00
  0.00000000E+00  0.00000000E+00  0.00000000E+00
  0.00000000E+00  0.00000000E+00  0.00000000E+00
  0.00000000E+00  0.00000000E+00  0.00000000E+00
  0.00000000E+00  0.00000000E+00  0.00000000E+00
  0.00000000E+00  0.00000000E+00  0.00000000E+00
  0.00000000E+00  0.00000000E+00  0.00000000E+00
  0.00000000E+00  0.00000000E+00  0.00000000E+00
  0.00000000E+00  0.00000000E+00  0.00000000E+00
  0.00000000E+00  0.00000000E+00  0.00000000E+00
  0.00000000E+00  0.00000000E+00  0.00000000E+00
  0.00000000E+00  0.00000000E+00  0.00000000E+00
  0.00000000E+00  0.00000000E+00  0.00000000E+00
  0.00000000E+00  0.00000000E+00  0.00000000E+00
  0.00000000E+00  0.00000000E+00  0.00000000E+00
  0.00000000E+00  0.00000000E+00  0.00000000E+00
  0.00000000E+00  0.00000000E+00  0.00000000E+00
  0.00000000E+00  0.00000000E+00  0.00000000E+00
  0.00000000E+00  0.00000000E+00  0.00000000E+00
  0.00000000E+00  0.00000000E+00  0.00000000E+00
  0.00000000E+00  0.00000000E+00  0.00000000E+00
  0.00000000E+00  0.00000000E+00  0.00000000E+00
  0.00000000E+00  0.00000000E+00  0.00000000E+00
  0.00000000E+00  0.00000000E+00  0.00000000E+00
