7n                                      
   1.00000000000000     
     9.7226874999999993    3.3680377500000001    0.0000000000000000
    -7.7781500000000001    6.7360755000000001    0.0000000000000000
     0.0000002500000000    0.0000002500000000   26.1140000000000008
   C    Ce   H    O 
     1    28     1    57
Selective dynamics
Direct
  0.4158906646241404  0.3426501266322948  0.4870798269707489   T   T   T
  0.2426902345877745  0.0572555056111430  0.0304000000000002   F   F   F
  0.0998330917306310  0.6286840770396959  0.0304000000000002   F   F   F
  0.3855473774449208  0.4858269341825605  0.0304000000000002   F   F   F
  0.5284045203020630  0.9143983627539765  0.0304000000000002   F   F   F
  0.8141188060163459  0.7715412198968444  0.0304000000000002   F   F   F
  0.6712616631592038  0.3429697913254176  0.0304000000000002   F   F   F
  0.9569759488734987  0.2001126484682680  0.0304000000000002   F   F   F
  0.2903073918816048  0.8667869405032818  0.1520000000000010   F   F   F
  0.1474502490244660  0.4382155119318440  0.1520000000000010   F   F   F
  0.4331645347387456  0.2953583690747039  0.1520000000000010   F   F   F
  0.5760216775958866  0.7239297976461346  0.1520000000000010   F   F   F
  0.8617359633101620  0.5810726547889866  0.1520000000000010   F   F   F
  0.7188788204530219  0.1525012262175624  0.1520000000000010   F   F   F
  0.0045931061673200  0.0096440833604204  0.1520000000000010   F   F   F
  0.9094722072163334  0.3915477232530203  0.2721502998586411   T   T   T
  0.3376503205443506  0.6762226279315182  0.2730228468756306   T   T   T
  0.0512012678202445  0.8179097727950008  0.2719085304260995   T   T   T
  0.7679215930407353  0.9621600116484957  0.2729069230748492   T   T   T
  0.4831393239983555  0.1068281531660214  0.2730313440363925   T   T   T
  0.1961106823037367  0.2481037072311517  0.2739464228561502   T   T   T
  0.6210261246438200  0.5309345618887248  0.2739546972373471   T   T   T
  0.2412614395692473  0.0413132098357822  0.3910164072981276   T   T   T
  0.0982519673615657  0.6297446420797285  0.3935694758752715   T   T   T
  0.5357390274312976  0.9192473559755528  0.3936181389579245   T   T   T
  0.9582661583819848  0.2075415029113122  0.3927705885636581   T   T   T
  0.8035654557235866  0.7608276508024708  0.3926263306602371   T   T   T
  0.3806949514613823  0.4975146326954325  0.3963852164889651   T   T   T
  0.6851677307059225  0.3471133894782505  0.3953980673694207   T   T   T
  0.9996656484122564  0.9995816304883034  0.4754727307264313   T   T   T
  0.0522102309786021  0.8191755040309872  0.0000000000000000   F   F   F
  0.1950673738357478  0.2477469326024095  0.0000000000000000   F   F   F
  0.9093530881214633  0.3906040754595566  0.0000000000000000   F   F   F
  0.6236388024071786  0.5334612183167025  0.0000000000000000   F   F   F
  0.7664959452643174  0.9620326468881250  0.0000000000000000   F   F   F
  0.4807816595500327  0.1048897897452719  0.0000000000000000   F   F   F
  0.3379245166928934  0.6763183611738413  0.0000000000000000   F   F   F
  0.1474502381969709  0.4382155071913556  0.0608000000000004   F   F   F
  0.2903073810540918  0.8667869357627672  0.0608000000000004   F   F   F
  0.7188788096255493  0.1525012214770696  0.0608000000000004   F   F   F
  0.4331645239112852  0.2953583643342004  0.0608000000000004   F   F   F
  0.5760216667683913  0.7239297929056191  0.0608000000000004   F   F   F
  0.8617359524826834  0.5810726500484756  0.0608000000000004   F   F   F
  0.0045930953398069  0.0096440786198995  0.0608000000000004   F   F   F
  0.2426902454152889  0.0572555103516656  0.1216000000000008   F   F   F
  0.5284045311295686  0.9143983674944799  0.1216000000000008   F   F   F
  0.3855473882724345  0.4858269389230871  0.1216000000000008   F   F   F
  0.0998331025581507  0.6286840817802357  0.1216000000000008   F   F   F
  0.8141188168438511  0.7715412246373459  0.1216000000000008   F   F   F
  0.9569759597010193  0.2001126532088012  0.1216000000000008   F   F   F
  0.6712616739867260  0.3429697960659391  0.1216000000000008   F   F   F
  0.0522102526336442  0.8191755135120495  0.1824000000000012   F   F   F
  0.3379245383479276  0.6763183706548941  0.1824000000000012   F   F   F
  0.6236388240622190  0.5334612277977502  0.1824000000000012   F   F   F
  0.9093531097765037  0.3906040849406118  0.1824000000000012   F   F   F
  0.7664959669193507  0.9620326563691696  0.1824000000000012   F   F   F
  0.1950673954907831  0.2477469420834577  0.1824000000000012   F   F   F
  0.4807816812050735  0.1048897992263134  0.1824000000000012   F   F   F
  0.7203151753576665  0.1517598363880011  0.2424996135172241   T   T   T
  0.2919601309088660  0.8665450533574480  0.2426381300530314   T   T   T
  0.1473562555158997  0.4392908857593990  0.2425311056617414   T   T   T
  0.8618382757195518  0.5817936709543571  0.2422274323601600   T   T   T
  0.5753120655209609  0.7244039432226899  0.2432797998581448   T   T   T
  0.0042563189285410  0.0089551849582423  0.2431186965099799   T   T   T
  0.4322250422081183  0.2946940049577207  0.2430566715338696   T   T   T
  0.6721947181311908  0.3427996384306253  0.3019168765578536   T   T   T
  0.2440109620269920  0.0547211000537800  0.3025810394398504   T   T   T
  0.0990270755348162  0.6314850035852744  0.3036679229029540   T   T   T
  0.3804875603908682  0.4834354682403729  0.3031931804159606   T   T   T
  0.9615421475385784  0.2036093140718264  0.3036484931022907   T   T   T
  0.5334200796617885  0.9192781056552106  0.3050763575670141   T   T   T
  0.8103414468859146  0.7659299253820911  0.3036037506887210   T   T   T
  0.7808392916474638  0.9653090613621381  0.3620852926871915   T   T   T
  0.9141743978554928  0.3927768174579758  0.3613006309799278   T   T   T
  0.0493941190976506  0.8262800916834516  0.3624195207446718   T   T   T
  0.3371962044669723  0.6843896806437185  0.3631522297564422   T   T   T
  0.4759165607194950  0.1077107505614584  0.3650165297314282   T   T   T
  0.6203422966033840  0.5310020163755371  0.3654992570473785   T   T   T
  0.1923440412708066  0.2312443065682493  0.3674241028206989   T   T   T
  0.2868396416946903  0.8679086703309555  0.4242044928292138   T   T   T
  0.5874478243296545  0.7436162313532615  0.4247344291536824   T   T   T
  0.8762702482123296  0.5974750466504097  0.4251476629255284   T   T   T
  0.7268481734134745  0.1430793820665810  0.4240819518152047   T   T   T
  0.1301895302104175  0.4363337727363133  0.4249937531911787   T   T   T
  0.4272662999156068  0.2725287149520024  0.4477469639033829   T   T   T
  1.0010137735936679  0.0022446235951710  0.4381796803385966   T   T   T
  0.4134271521350725  0.3278508712253046  0.5329142735243723   T   T   T
 
  0.00000000E+00  0.00000000E+00  0.00000000E+00
  0.00000000E+00  0.00000000E+00  0.00000000E+00
  0.00000000E+00  0.00000000E+00  0.00000000E+00
  0.00000000E+00  0.00000000E+00  0.00000000E+00
  0.00000000E+00  0.00000000E+00  0.00000000E+00
  0.00000000E+00  0.00000000E+00  0.00000000E+00
  0.00000000E+00  0.00000000E+00  0.00000000E+00
  0.00000000E+00  0.00000000E+00  0.00000000E+00
  0.00000000E+00  0.00000000E+00  0.00000000E+00
  0.00000000E+00  0.00000000E+00  0.00000000E+00
  0.00000000E+00  0.00000000E+00  0.00000000E+00
  0.00000000E+00  0.00000000E+00  0.00000000E+00
  0.00000000E+00  0.00000000E+00  0.00000000E+00
  0.00000000E+00  0.00000000E+00  0.00000000E+00
  0.00000000E+00  0.00000000E+00  0.00000000E+00
  0.00000000E+00  0.00000000E+00  0.00000000E+00
  0.00000000E+00  0.00000000E+00  0.00000000E+00
  0.00000000E+00  0.00000000E+00  0.00000000E+00
  0.00000000E+00  0.00000000E+00  0.00000000E+00
  0.00000000E+00  0.00000000E+00  0.00000000E+00
  0.00000000E+00  0.00000000E+00  0.00000000E+00
  0.00000000E+00  0.00000000E+00  0.00000000E+00
  0.00000000E+00  0.00000000E+00  0.00000000E+00
  0.00000000E+00  0.00000000E+00  0.00000000E+00
  0.00000000E+00  0.00000000E+00  0.00000000E+00
  0.00000000E+00  0.00000000E+00  0.00000000E+00
  0.00000000E+00  0.00000000E+00  0.00000000E+00
  0.00000000E+00  0.00000000E+00  0.00000000E+00
  0.00000000E+00  0.00000000E+00  0.00000000E+00
  0.00000000E+00  0.00000000E+00  0.00000000E+00
  0.00000000E+00  0.00000000E+00  0.00000000E+00
  0.00000000E+00  0.00000000E+00  0.00000000E+00
  0.00000000E+00  0.00000000E+00  0.00000000E+00
  0.00000000E+00  0.00000000E+00  0.00000000E+00
  0.00000000E+00  0.00000000E+00  0.00000000E+00
  0.00000000E+00  0.00000000E+00  0.00000000E+00
  0.00000000E+00  0.00000000E+00  0.00000000E+00
  0.00000000E+00  0.00000000E+00  0.00000000E+00
  0.00000000E+00  0.00000000E+00  0.00000000E+00
  0.00000000E+00  0.00000000E+00  0.00000000E+00
  0.00000000E+00  0.00000000E+00  0.00000000E+00
  0.00000000E+00  0.00000000E+00  0.00000000E+00
  0.00000000E+00  0.00000000E+00  0.00000000E+00
  0.00000000E+00  0.00000000E+00  0.00000000E+00
  0.00000000E+00  0.00000000E+00  0.00000000E+00
  0.00000000E+00  0.00000000E+00  0.00000000E+00
  0.00000000E+00  0.00000000E+00  0.00000000E+00
  0.00000000E+00  0.00000000E+00  0.00000000E+00
  0.00000000E+00  0.00000000E+00  0.00000000E+00
  0.00000000E+00  0.00000000E+00  0.00000000E+00
  0.00000000E+00  0.00000000E+00  0.00000000E+00
  0.00000000E+00  0.00000000E+00  0.00000000E+00
  0.00000000E+00  0.00000000E+00  0.00000000E+00
  0.00000000E+00  0.00000000E+00  0.00000000E+00
  0.00000000E+00  0.00000000E+00  0.00000000E+00
  0.00000000E+00  0.00000000E+00  0.00000000E+00
  0.00000000E+00  0.00000000E+00  0.00000000E+00
  0.00000000E+00  0.00000000E+00  0.00000000E+00
  0.00000000E+00  0.00000000E+00  0.00000000E+00
  0.00000000E+00  0.00000000E+00  0.00000000E+00
  0.00000000E+00  0.00000000E+00  0.00000000E+00
  0.00000000E+00  0.00000000E+00  0.00000000E+00
  0.00000000E+00  0.00000000E+00  0.00000000E+00
  0.00000000E+00  0.00000000E+00  0.00000000E+00
  0.00000000E+00  0.00000000E+00  0.00000000E+00
  0.00000000E+00  0.00000000E+00  0.00000000E+00
  0.00000000E+00  0.00000000E+00  0.00000000E+00
  0.00000000E+00  0.00000000E+00  0.00000000E+00
  0.00000000E+00  0.00000000E+00  0.00000000E+00
  0.00000000E+00  0.00000000E+00  0.00000000E+00
  0.00000000E+00  0.00000000E+00  0.00000000E+00
  0.00000000E+00  0.00000000E+00  0.00000000E+00
  0.00000000E+00  0.00000000E+00  0.00000000E+00
  0.00000000E+00  0.00000000E+00  0.00000000E+00
  0.00000000E+00  0.00000000E+00  0.00000000E+00
  0.00000000E+00  0.00000000E+00  0.00000000E+00
  0.00000000E+00  0.00000000E+00  0.00000000E+00
  0.00000000E+00  0.00000000E+00  0.00000000E+00
  0.00000000E+00  0.00000000E+00  0.00000000E+00
  0.00000000E+00  0.00000000E+00  0.00000000E+00
  0.00000000E+00  0.00000000E+00  0.00000000E+00
  0.00000000E+00  0.00000000E+00  0.00000000E+00
  0.00000000E+00  0.00000000E+00  0.00000000E+00
  0.00000000E+00  0.00000000E+00  0.00000000E+00
  0.00000000E+00  0.00000000E+00  0.00000000E+00
  0.00000000E+00  0.00000000E+00  0.00000000E+00
  0.00000000E+00  0.00000000E+00  0.00000000E+00
