cof16n                                  
   1.00000000000000     
    15.5563000000000002    0.0000000000000000    0.0000000000000000
    -7.7781500000000001   13.4721510000000002    0.0000000000000000
     0.0000010000000000    0.0000010000000000   26.1140000000000008
   C    Ce   H    O 
     1    64     1   129
Selective dynamics
Direct
  0.5022781443972293  0.5123668821210724  0.5229229864809486   T   T   T
  0.4166700000000034  0.3333299999999965  0.0304000000000002   F   F   F
  0.6666700000000034  0.3333299999999965  0.0304000000000002   F   F   F
  0.6666700000000108  0.0833299999999966  0.0304000000000002   F   F   F
  0.9166700000000176  0.0833299999999966  0.0304000000000002   F   F   F
  0.9166700000000034  0.3333299999999965  0.0304000000000002   F   F   F
  0.1666699999999881  0.8333299999999966  0.0304000000000002   F   F   F
  0.1666700000000034  0.5833299999999966  0.0304000000000002   F   F   F
  0.4166700000000034  0.5833299999999966  0.0304000000000002   F   F   F
  0.4166700000000034  0.8333299999999966  0.0304000000000002   F   F   F
  0.6666700000000034  0.8333299999999966  0.0304000000000002   F   F   F
  0.6666700000000034  0.5833299999999966  0.0304000000000002   F   F   F
  0.9166700000000035  0.5833299999999966  0.0304000000000002   F   F   F
  0.9166700000000034  0.8333299999999966  0.0304000000000002   F   F   F
  0.1666700000000034  0.3333299999999965  0.0304000000000002   F   F   F
  0.1666700000000035  0.0833299999999966  0.0304000000000002   F   F   F
  0.4166700000000036  0.0833299999999966  0.0304000000000002   F   F   F
  0.0000000000000003  0.5000000000000000  0.1520000000000010   F   F   F
  0.0000000000000000  0.7500000000000000  0.1520000000000010   F   F   F
  0.2500000000000000  0.7500000000000000  0.1520000000000010   F   F   F
  0.2500000000000008  0.5000000000000000  0.1520000000000010   F   F   F
  0.5000000000000000  0.5000000000000000  0.1520000000000010   F   F   F
  0.5000000000000000  0.7500000000000000  0.1520000000000010   F   F   F
  0.7500000000000000  0.7500000000000000  0.1520000000000010   F   F   F
  0.7500000000000000  0.5000000000000000  0.1520000000000010   F   F   F
  0.0000000000000000  0.0000000000000000  0.1520000000000010   F   F   F
  0.9999999999999942  0.2500000000000002  0.1520000000000010   F   F   F
  0.2500000000000001  0.2500000000000002  0.1520000000000010   F   F   F
  0.2500000000000225  0.0000000000000000  0.1520000000000010   F   F   F
  0.5000000000000000  0.0000000000000000  0.1520000000000010   F   F   F
  0.5000000000000000  0.2500000000000002  0.1520000000000010   F   F   F
  0.7500000000000000  0.2500000000000002  0.1520000000000010   F   F   F
  0.7500000000000000  0.0000000000000000  0.1520000000000010   F   F   F
  0.0831490817428926  0.4173835149924309  0.2721472033838726   T   T   T
  0.8338223264860485  0.6667610503072787  0.2724076924115864   T   T   T
  0.0827160061805275  0.9155428428470448  0.2723133953151965   T   T   T
  0.3328448423458588  0.6671863132380004  0.2725335545976540   T   T   T
  0.3329268089955049  0.1658489021041782  0.2726434828216351   T   T   T
  0.8331183576879361  0.4168772983203649  0.2726209204703625   T   T   T
  0.8338589689501735  0.1670629722959701  0.2726504744157613   T   T   T
  0.0831954254814982  0.6664540612324749  0.2728169835680530   T   T   T
  0.5833553311760057  0.1668590421858751  0.2728755888127514   T   T   T
  0.8337141098552493  0.9163367235157660  0.2729136739758175   T   T   T
  0.5834592374083624  0.9166122367088571  0.2730153963260502   T   T   T
  0.3334071264884029  0.9166488959618110  0.2731947675227384   T   T   T
  0.0843510662103727  0.1671399522929183  0.2733567234423054   T   T   T
  0.5831827325046984  0.4173136830381628  0.2744023689763626   T   T   T
  0.3338479563148777  0.4169530363645284  0.2747763759836622   T   T   T
  0.5828813645264133  0.6656989376808854  0.2749495887339748   T   T   T
  0.9151034119403905  0.3330725607513946  0.3924230548869630   T   T   T
  0.6680466900545258  0.0837298532178807  0.3924545997110906   T   T   T
  0.9175155062996240  0.0841427607722324  0.3926796061791916   T   T   T
  0.1612155389359389  0.0726132829961677  0.3924952391047580   T   T   T
  0.4147358916029983  0.3204661979282771  0.3933612107327071   T   T   T
  0.1624717045479838  0.3388501239980953  0.3929840767385032   T   T   T
  0.6821915863931509  0.5911881120376736  0.3937166632813217   T   T   T
  0.4089227429872068  0.5914519892126472  0.3935050804248190   T   T   T
  0.1631145367324441  0.5842215472564010  0.3937839160234651   T   T   T
  0.9174758301481138  0.8345459889875153  0.3937371733447387   T   T   T
  0.4181437062543066  0.8367502122544093  0.3938721074517403   T   T   T
  0.4183753732863458  0.0810679056506628  0.3939066561195876   T   T   T
  0.9183005268994601  0.5821251844163384  0.3939404429450007   T   T   T
  0.6685484082957059  0.3328409747309822  0.3938836786433030   T   T   T
  0.6677163738691716  0.8349075588173057  0.3939881655474649   T   T   T
  0.1656698353993716  0.8310499390900160  0.3945664844530259   T   T   T
  0.2317194632053971  0.2335604376764026  0.4775853139632236   T   T   T
  0.0833299999999966  0.6666700000000034  0.0000000000000000   F   F   F
  0.0833299999999892  0.9166700000000034  0.0000000000000000   F   F   F
  0.3333299999999966  0.9166700000000034  0.0000000000000000   F   F   F
  0.3333299999999966  0.4166700000000034  0.0000000000000000   F   F   F
  0.8333299999999966  0.6666700000000034  0.0000000000000000   F   F   F
  0.5833299999999966  0.6666700000000034  0.0000000000000000   F   F   F
  0.5833299999999966  0.9166700000000034  0.0000000000000000   F   F   F
  0.8333299999999966  0.9166700000000034  0.0000000000000000   F   F   F
  0.3333299999999966  0.1666700000000034  0.0000000000000000   F   F   F
  0.8333300000000108  0.1666700000000034  0.0000000000000000   F   F   F
  0.5833299999999966  0.1666700000000034  0.0000000000000000   F   F   F
  0.5833299999999966  0.4166700000000034  0.0000000000000000   F   F   F
  0.0833299999999966  0.1666700000000034  0.0000000000000000   F   F   F
  0.8333299999999967  0.4166700000000034  0.0000000000000000   F   F   F
  0.3333299999999966  0.6666700000000034  0.0000000000000000   F   F   F
  0.0833299999999966  0.4166700000000034  0.0000000000000000   F   F   F
  0.2500000000000000  0.4999999999999857  0.0608000000000004   F   F   F
 -0.0000000000000001  0.4999999999999857  0.0608000000000004   F   F   F
 -0.0000000000000015  0.7500000000000001  0.0608000000000004   F   F   F
  0.2500000000000000  0.7500000000000001  0.0608000000000004   F   F   F
  0.7500000000000000  0.4999999999999857  0.0608000000000004   F   F   F
  0.5000000000000019  0.4999999999999857  0.0608000000000004   F   F   F
  0.5000000000000001  0.7500000000000001  0.0608000000000004   F   F   F
  0.7500000000000001  0.7500000000000001  0.0608000000000004   F   F   F
  0.2500000000000000  0.0000000000000000  0.0608000000000004   F   F   F
  0.0000000000000000  0.0000000000000000  0.0608000000000004   F   F   F
 -0.0000000000000001  0.2500000000000000  0.0608000000000004   F   F   F
  0.2500000000000000  0.2500000000000000  0.0608000000000004   F   F   F
  0.7500000000000000  0.0000000000000000  0.0608000000000004   F   F   F
  0.5000000000000000  0.0000000000000000  0.0608000000000004   F   F   F
  0.5000000000000000  0.2500000000000000  0.0608000000000004   F   F   F
  0.7500000000000000  0.2500000000000000  0.0608000000000004   F   F   F
  0.9166700000000034  0.5833299999999965  0.1216000000000008   F   F   F
  0.6666700000000105  0.5833299999999965  0.1216000000000008   F   F   F
  0.1666700000000034  0.3333299999999966  0.1216000000000008   F   F   F
  0.6666700000000034  0.3333299999999966  0.1216000000000008   F   F   F
  0.9166700000000034  0.3333299999999966  0.1216000000000008   F   F   F
  0.9166700000000539  0.0833299999999968  0.1216000000000008   F   F   F
  0.6666700000000029  0.0833299999999968  0.1216000000000008   F   F   F
  0.4166700000000034  0.3333299999999966  0.1216000000000008   F   F   F
  0.1666700000000029  0.8333299999999823  0.1216000000000008   F   F   F
  0.4166700000000034  0.8333299999999823  0.1216000000000008   F   F   F
  0.4166700000000247  0.5833299999999965  0.1216000000000008   F   F   F
  0.4166700000000624  0.0833299999999968  0.1216000000000008   F   F   F
  0.1666700000000113  0.5833299999999965  0.1216000000000008   F   F   F
  0.6666700000000034  0.8333299999999823  0.1216000000000008   F   F   F
  0.1666700000000114  0.0833299999999968  0.1216000000000008   F   F   F
  0.9166700000000105  0.8333299999999823  0.1216000000000008   F   F   F
  0.0833299999999968  0.6666700000000038  0.1824000000000012   F   F   F
  0.3333300000000038  0.6666700000000038  0.1824000000000012   F   F   F
  0.3333299999999966  0.9166700000000034  0.1824000000000012   F   F   F
  0.0833299999999966  0.9166700000000034  0.1824000000000012   F   F   F
  0.5833300000000345  0.6666700000000038  0.1824000000000012   F   F   F
  0.8333300000000212  0.6666700000000038  0.1824000000000012   F   F   F
  0.8333300000000038  0.9166700000000034  0.1824000000000012   F   F   F
  0.5833299999999966  0.9166700000000034  0.1824000000000012   F   F   F
  0.0833299999999966  0.1666700000000034  0.1824000000000012   F   F   F
  0.3333300000000179  0.1666700000000034  0.1824000000000012   F   F   F
  0.3333300000000037  0.4166700000000034  0.1824000000000012   F   F   F
  0.0833299999999966  0.4166700000000034  0.1824000000000012   F   F   F
  0.5833299999999966  0.1666700000000034  0.1824000000000012   F   F   F
  0.8333300000000108  0.1666700000000034  0.1824000000000012   F   F   F
  0.8333300000000109  0.4166700000000034  0.1824000000000012   F   F   F
  0.5833300000000038  0.4166700000000034  0.1824000000000012   F   F   F
  0.9997398465131084  0.4998649940826041  0.2421456800083524   T   T   T
  0.0002826480283977  0.7499661494392983  0.2424506159090917   T   T   T
  0.9998771122945072  0.0003425840393482  0.2423698915423182   T   T   T
  0.7498953465424252  0.4992720127136515  0.2425870741847148   T   T   T
  0.2501755174196652  0.9997760455856788  0.2426231065470053   T   T   T
  0.2502002018458722  0.7504028920530714  0.2426289359010231   T   T   T
  0.2494412084658951  0.4996146183993809  0.2425779735209116   T   T   T
  0.0010516431872863  0.2502306033325254  0.2425781660499520   T   T   T
  0.7493654373650740  0.2504516459265733  0.2426595177435052   T   T   T
  0.5001998596895850  0.2495350493237036  0.2427674380749159   T   T   T
  0.7499783544916987  0.7507847250314816  0.2427951125767032   T   T   T
  0.5000030254316205  0.0005810151675680  0.2427441595029489   T   T   T
  0.5005000212669536  0.7503643310480237  0.2430985086554793   T   T   T
  0.7507523894746847  0.9994124727641612  0.2431124385957163   T   T   T
  0.2492732608273570  0.2498223360163346  0.2433897688162194   T   T   T
  0.4994643070677077  0.4998432491899520  0.2441253212789369   T   T   T
  0.6693948379507979  0.5846815627317485  0.3021420056203392   T   T   T
  0.4161776919757527  0.3308775423742635  0.3024590694911863   T   T   T
  0.9160009241155368  0.3322305135304670  0.3027452531625328   T   T   T
  0.6684535479801305  0.0840814667873826  0.3028991374841969   T   T   T
  0.4139595291129703  0.5830661702976457  0.3028224755032436   T   T   T
  0.1654748077850121  0.5830330070719090  0.3032187555222599   T   T   T
  0.9167683603538599  0.8339298397267960  0.3032096923608569   T   T   T
  0.9168750491176042  0.5825608695075633  0.3032798717777667   T   T   T
  0.1644555295689749  0.0803625855432234  0.3032976665127616   T   T   T
  0.4177124364866512  0.8348148569885135  0.3035573151716817   T   T   T
  0.1668888802386686  0.8329247505854757  0.3040034991087499   T   T   T
  0.4163497313817450  0.0839199545565436  0.3043765814414202   T   T   T
  0.9199352749694073  0.0858627439147883  0.3042989546806517   T   T   T
  0.1677355239225121  0.3357743501724227  0.3046409321867412   T   T   T
  0.6652604467884902  0.3346227617546880  0.3049985726375870   T   T   T
  0.6657495588878110  0.8309943422798612  0.3052760743503999   T   T   T
  0.0798363104348457  0.4163412992884264  0.3615156728190723   T   T   T
  0.8343976679437375  0.4146593313217380  0.3614851817507799   T   T   T
  0.5853176205447082  0.1649563092253363  0.3616616264775487   T   T   T
  0.8357410691106849  0.9203148824143449  0.3618291937504887   T   T   T
  0.5855747852293267  0.9201758318757017  0.3619601348078659   T   T   T
  0.0817476329454441  0.9143146444352817  0.3622989279817284   T   T   T
  0.8407169402203780  0.6703830436369859  0.3624995142728663   T   T   T
  0.8342315459913704  0.1668862314500414  0.3623782219336767   T   T   T
  0.0824900568316718  0.6658108164291250  0.3626637640710404   T   T   T
  0.3292883421018389  0.6706986374503500  0.3626102798504239   T   T   T
  0.3340980195681764  0.9171390801843686  0.3632224671748155   T   T   T
  0.3259218085432057  0.1608950884383891  0.3638525052108961   T   T   T
  0.0904147624124540  0.1701795096001102  0.3642101965273874   T   T   T
  0.5817479832150386  0.4187339046443865  0.3675799342680069   T   T   T
  0.5809210879320080  0.6622819577407936  0.3673706714398792   T   T   T
  0.3320443266576876  0.4132089785582045  0.3687970705934852   T   T   T
  0.0003445642064712  0.2510090465003484  0.4230388887638457   T   T   T
  0.7525432957770471  0.0017389888942119  0.4231308056127510   T   T   T
  0.7509211168150385  0.2499389337346837  0.4232814792563498   T   T   T
  0.0017333875143406  0.0001646768132292  0.4237373792336572   T   T   T
  0.9989044925289743  0.4992155058163328  0.4240400950859659   T   T   T
  0.5008613968751487  0.0009752517165189  0.4241209591168966   T   T   T
  0.2455943126859132  0.9959344024954414  0.4245372970829407   T   T   T
  0.0026654342762564  0.7507551352162792  0.4248633533882581   T   T   T
  0.2470273730686073  0.7507514832503358  0.4248721478848386   T   T   T
  0.5030204813825432  0.7632598559388397  0.4255297428400696   T   T   T
  0.5029873351012761  0.2390046231012927  0.4253948423486496   T   T   T
  0.7602814631667953  0.7636524859629862  0.4258159761705178   T   T   T
  0.7601336641178309  0.4959595443893144  0.4256041548422496   T   T   T
  0.2350055578216415  0.4968232150724677  0.4260210389062396   T   T   T
  0.2419352892870223  0.2422617416749686  0.4407641804550456   T   T   T
  0.5043264216246610  0.5040752805784282  0.4778129199178897   T   T   T
  0.4997961545480878  0.5203725636590001  0.5672261774718869   T   T   T
 
  0.00000000E+00  0.00000000E+00  0.00000000E+00
  0.00000000E+00  0.00000000E+00  0.00000000E+00
  0.00000000E+00  0.00000000E+00  0.00000000E+00
  0.00000000E+00  0.00000000E+00  0.00000000E+00
  0.00000000E+00  0.00000000E+00  0.00000000E+00
  0.00000000E+00  0.00000000E+00  0.00000000E+00
  0.00000000E+00  0.00000000E+00  0.00000000E+00
  0.00000000E+00  0.00000000E+00  0.00000000E+00
  0.00000000E+00  0.00000000E+00  0.00000000E+00
  0.00000000E+00  0.00000000E+00  0.00000000E+00
  0.00000000E+00  0.00000000E+00  0.00000000E+00
  0.00000000E+00  0.00000000E+00  0.00000000E+00
  0.00000000E+00  0.00000000E+00  0.00000000E+00
  0.00000000E+00  0.00000000E+00  0.00000000E+00
  0.00000000E+00  0.00000000E+00  0.00000000E+00
  0.00000000E+00  0.00000000E+00  0.00000000E+00
  0.00000000E+00  0.00000000E+00  0.00000000E+00
  0.00000000E+00  0.00000000E+00  0.00000000E+00
  0.00000000E+00  0.00000000E+00  0.00000000E+00
  0.00000000E+00  0.00000000E+00  0.00000000E+00
  0.00000000E+00  0.00000000E+00  0.00000000E+00
  0.00000000E+00  0.00000000E+00  0.00000000E+00
  0.00000000E+00  0.00000000E+00  0.00000000E+00
  0.00000000E+00  0.00000000E+00  0.00000000E+00
  0.00000000E+00  0.00000000E+00  0.00000000E+00
  0.00000000E+00  0.00000000E+00  0.00000000E+00
  0.00000000E+00  0.00000000E+00  0.00000000E+00
  0.00000000E+00  0.00000000E+00  0.00000000E+00
  0.00000000E+00  0.00000000E+00  0.00000000E+00
  0.00000000E+00  0.00000000E+00  0.00000000E+00
  0.00000000E+00  0.00000000E+00  0.00000000E+00
  0.00000000E+00  0.00000000E+00  0.00000000E+00
  0.00000000E+00  0.00000000E+00  0.00000000E+00
  0.00000000E+00  0.00000000E+00  0.00000000E+00
  0.00000000E+00  0.00000000E+00  0.00000000E+00
  0.00000000E+00  0.00000000E+00  0.00000000E+00
  0.00000000E+00  0.00000000E+00  0.00000000E+00
  0.00000000E+00  0.00000000E+00  0.00000000E+00
  0.00000000E+00  0.00000000E+00  0.00000000E+00
  0.00000000E+00  0.00000000E+00  0.00000000E+00
  0.00000000E+00  0.00000000E+00  0.00000000E+00
  0.00000000E+00  0.00000000E+00  0.00000000E+00
  0.00000000E+00  0.00000000E+00  0.00000000E+00
  0.00000000E+00  0.00000000E+00  0.00000000E+00
  0.00000000E+00  0.00000000E+00  0.00000000E+00
  0.00000000E+00  0.00000000E+00  0.00000000E+00
  0.00000000E+00  0.00000000E+00  0.00000000E+00
  0.00000000E+00  0.00000000E+00  0.00000000E+00
  0.00000000E+00  0.00000000E+00  0.00000000E+00
  0.00000000E+00  0.00000000E+00  0.00000000E+00
  0.00000000E+00  0.00000000E+00  0.00000000E+00
  0.00000000E+00  0.00000000E+00  0.00000000E+00
  0.00000000E+00  0.00000000E+00  0.00000000E+00
  0.00000000E+00  0.00000000E+00  0.00000000E+00
  0.00000000E+00  0.00000000E+00  0.00000000E+00
  0.00000000E+00  0.00000000E+00  0.00000000E+00
  0.00000000E+00  0.00000000E+00  0.00000000E+00
  0.00000000E+00  0.00000000E+00  0.00000000E+00
  0.00000000E+00  0.00000000E+00  0.00000000E+00
  0.00000000E+00  0.00000000E+00  0.00000000E+00
  0.00000000E+00  0.00000000E+00  0.00000000E+00
  0.00000000E+00  0.00000000E+00  0.00000000E+00
  0.00000000E+00  0.00000000E+00  0.00000000E+00
  0.00000000E+00  0.00000000E+00  0.00000000E+00
  0.00000000E+00  0.00000000E+00  0.00000000E+00
  0.00000000E+00  0.00000000E+00  0.00000000E+00
  0.00000000E+00  0.00000000E+00  0.00000000E+00
  0.00000000E+00  0.00000000E+00  0.00000000E+00
  0.00000000E+00  0.00000000E+00  0.00000000E+00
  0.00000000E+00  0.00000000E+00  0.00000000E+00
  0.00000000E+00  0.00000000E+00  0.00000000E+00
  0.00000000E+00  0.00000000E+00  0.00000000E+00
  0.00000000E+00  0.00000000E+00  0.00000000E+00
  0.00000000E+00  0.00000000E+00  0.00000000E+00
  0.00000000E+00  0.00000000E+00  0.00000000E+00
  0.00000000E+00  0.00000000E+00  0.00000000E+00
  0.00000000E+00  0.00000000E+00  0.00000000E+00
  0.00000000E+00  0.00000000E+00  0.00000000E+00
  0.00000000E+00  0.00000000E+00  0.00000000E+00
  0.00000000E+00  0.00000000E+00  0.00000000E+00
  0.00000000E+00  0.00000000E+00  0.00000000E+00
  0.00000000E+00  0.00000000E+00  0.00000000E+00
  0.00000000E+00  0.00000000E+00  0.00000000E+00
  0.00000000E+00  0.00000000E+00  0.00000000E+00
  0.00000000E+00  0.00000000E+00  0.00000000E+00
  0.00000000E+00  0.00000000E+00  0.00000000E+00
  0.00000000E+00  0.00000000E+00  0.00000000E+00
  0.00000000E+00  0.00000000E+00  0.00000000E+00
  0.00000000E+00  0.00000000E+00  0.00000000E+00
  0.00000000E+00  0.00000000E+00  0.00000000E+00
  0.00000000E+00  0.00000000E+00  0.00000000E+00
  0.00000000E+00  0.00000000E+00  0.00000000E+00
  0.00000000E+00  0.00000000E+00  0.00000000E+00
  0.00000000E+00  0.00000000E+00  0.00000000E+00
  0.00000000E+00  0.00000000E+00  0.00000000E+00
  0.00000000E+00  0.00000000E+00  0.00000000E+00
  0.00000000E+00  0.00000000E+00  0.00000000E+00
  0.00000000E+00  0.00000000E+00  0.00000000E+00
  0.00000000E+00  0.00000000E+00  0.00000000E+00
  0.00000000E+00  0.00000000E+00  0.00000000E+00
  0.00000000E+00  0.00000000E+00  0.00000000E+00
  0.00000000E+00  0.00000000E+00  0.00000000E+00
  0.00000000E+00  0.00000000E+00  0.00000000E+00
  0.00000000E+00  0.00000000E+00  0.00000000E+00
  0.00000000E+00  0.00000000E+00  0.00000000E+00
  0.00000000E+00  0.00000000E+00  0.00000000E+00
  0.00000000E+00  0.00000000E+00  0.00000000E+00
  0.00000000E+00  0.00000000E+00  0.00000000E+00
  0.00000000E+00  0.00000000E+00  0.00000000E+00
  0.00000000E+00  0.00000000E+00  0.00000000E+00
  0.00000000E+00  0.00000000E+00  0.00000000E+00
  0.00000000E+00  0.00000000E+00  0.00000000E+00
  0.00000000E+00  0.00000000E+00  0.00000000E+00
  0.00000000E+00  0.00000000E+00  0.00000000E+00
  0.00000000E+00  0.00000000E+00  0.00000000E+00
  0.00000000E+00  0.00000000E+00  0.00000000E+00
  0.00000000E+00  0.00000000E+00  0.00000000E+00
  0.00000000E+00  0.00000000E+00  0.00000000E+00
  0.00000000E+00  0.00000000E+00  0.00000000E+00
  0.00000000E+00  0.00000000E+00  0.00000000E+00
  0.00000000E+00  0.00000000E+00  0.00000000E+00
  0.00000000E+00  0.00000000E+00  0.00000000E+00
  0.00000000E+00  0.00000000E+00  0.00000000E+00
  0.00000000E+00  0.00000000E+00  0.00000000E+00
  0.00000000E+00  0.00000000E+00  0.00000000E+00
  0.00000000E+00  0.00000000E+00  0.00000000E+00
  0.00000000E+00  0.00000000E+00  0.00000000E+00
  0.00000000E+00  0.00000000E+00  0.00000000E+00
  0.00000000E+00  0.00000000E+00  0.00000000E+00
  0.00000000E+00  0.00000000E+00  0.00000000E+00
  0.00000000E+00  0.00000000E+00  0.00000000E+00
  0.00000000E+00  0.00000000E+00  0.00000000E+00
  0.00000000E+00  0.00000000E+00  0.00000000E+00
  0.00000000E+00  0.00000000E+00  0.00000000E+00
  0.00000000E+00  0.00000000E+00  0.00000000E+00
  0.00000000E+00  0.00000000E+00  0.00000000E+00
  0.00000000E+00  0.00000000E+00  0.00000000E+00
  0.00000000E+00  0.00000000E+00  0.00000000E+00
  0.00000000E+00  0.00000000E+00  0.00000000E+00
  0.00000000E+00  0.00000000E+00  0.00000000E+00
  0.00000000E+00  0.00000000E+00  0.00000000E+00
  0.00000000E+00  0.00000000E+00  0.00000000E+00
  0.00000000E+00  0.00000000E+00  0.00000000E+00
  0.00000000E+00  0.00000000E+00  0.00000000E+00
  0.00000000E+00  0.00000000E+00  0.00000000E+00
  0.00000000E+00  0.00000000E+00  0.00000000E+00
  0.00000000E+00  0.00000000E+00  0.00000000E+00
  0.00000000E+00  0.00000000E+00  0.00000000E+00
  0.00000000E+00  0.00000000E+00  0.00000000E+00
  0.00000000E+00  0.00000000E+00  0.00000000E+00
  0.00000000E+00  0.00000000E+00  0.00000000E+00
  0.00000000E+00  0.00000000E+00  0.00000000E+00
  0.00000000E+00  0.00000000E+00  0.00000000E+00
  0.00000000E+00  0.00000000E+00  0.00000000E+00
  0.00000000E+00  0.00000000E+00  0.00000000E+00
  0.00000000E+00  0.00000000E+00  0.00000000E+00
  0.00000000E+00  0.00000000E+00  0.00000000E+00
  0.00000000E+00  0.00000000E+00  0.00000000E+00
  0.00000000E+00  0.00000000E+00  0.00000000E+00
  0.00000000E+00  0.00000000E+00  0.00000000E+00
  0.00000000E+00  0.00000000E+00  0.00000000E+00
  0.00000000E+00  0.00000000E+00  0.00000000E+00
  0.00000000E+00  0.00000000E+00  0.00000000E+00
  0.00000000E+00  0.00000000E+00  0.00000000E+00
  0.00000000E+00  0.00000000E+00  0.00000000E+00
  0.00000000E+00  0.00000000E+00  0.00000000E+00
  0.00000000E+00  0.00000000E+00  0.00000000E+00
  0.00000000E+00  0.00000000E+00  0.00000000E+00
  0.00000000E+00  0.00000000E+00  0.00000000E+00
  0.00000000E+00  0.00000000E+00  0.00000000E+00
  0.00000000E+00  0.00000000E+00  0.00000000E+00
  0.00000000E+00  0.00000000E+00  0.00000000E+00
  0.00000000E+00  0.00000000E+00  0.00000000E+00
  0.00000000E+00  0.00000000E+00  0.00000000E+00
  0.00000000E+00  0.00000000E+00  0.00000000E+00
  0.00000000E+00  0.00000000E+00  0.00000000E+00
  0.00000000E+00  0.00000000E+00  0.00000000E+00
  0.00000000E+00  0.00000000E+00  0.00000000E+00
  0.00000000E+00  0.00000000E+00  0.00000000E+00
  0.00000000E+00  0.00000000E+00  0.00000000E+00
  0.00000000E+00  0.00000000E+00  0.00000000E+00
  0.00000000E+00  0.00000000E+00  0.00000000E+00
  0.00000000E+00  0.00000000E+00  0.00000000E+00
  0.00000000E+00  0.00000000E+00  0.00000000E+00
  0.00000000E+00  0.00000000E+00  0.00000000E+00
  0.00000000E+00  0.00000000E+00  0.00000000E+00
  0.00000000E+00  0.00000000E+00  0.00000000E+00
  0.00000000E+00  0.00000000E+00  0.00000000E+00
  0.00000000E+00  0.00000000E+00  0.00000000E+00
  0.00000000E+00  0.00000000E+00  0.00000000E+00
  0.00000000E+00  0.00000000E+00  0.00000000E+00
  0.00000000E+00  0.00000000E+00  0.00000000E+00
  0.00000000E+00  0.00000000E+00  0.00000000E+00
  0.00000000E+00  0.00000000E+00  0.00000000E+00
  0.00000000E+00  0.00000000E+00  0.00000000E+00
