9n                                      
   1.00000000000000     
    11.6672250000000002    0.0000000000000000    0.0000000000000000
    -5.8336125000000001   10.1041132500000010    0.0000000000000000
     0.0000002500000000    0.0000002500000000   26.1140000000000008
   C    Ce   H    O 
     1    36     1    73
Selective dynamics
Direct
  0.3608543505127450  0.3719785071727032  0.5228646314679085   T   T   T
  0.2466006542414477  0.1330260380882038  0.0304000000000002   F   F   F
  0.5799339875747833  0.1330260380882038  0.0304000000000002   F   F   F
  0.9132673209081192  0.1330260380882038  0.0304000000000002   F   F   F
  0.2466006542414476  0.4663593714215395  0.0304000000000002   F   F   F
  0.2466006542414477  0.7996927047548755  0.0304000000000002   F   F   F
  0.5799339875747834  0.7996927047548755  0.0304000000000002   F   F   F
  0.5799339875747832  0.4663593714215395  0.0304000000000002   F   F   F
  0.9132673209081190  0.4663593714215395  0.0304000000000002   F   F   F
  0.9132673209081190  0.7996927047548755  0.0304000000000002   F   F   F
  0.0243739999045617  0.6885860471142351  0.1520000000000010   F   F   F
  0.0243739999045616  0.3552527137809065  0.1520000000000010   F   F   F
  0.3577073332378973  0.3552527137809065  0.1520000000000010   F   F   F
  0.3577073332378974  0.6885860471142351  0.1520000000000010   F   F   F
  0.6910406665712258  0.6885860471142351  0.1520000000000010   F   F   F
  0.6910406665712258  0.3552527137809065  0.1520000000000010   F   F   F
  0.0243739999045900  0.0219193804475708  0.1520000000000010   F   F   F
  0.3577073332378972  0.0219193804475708  0.1520000000000010   F   F   F
  0.6910406665712258  0.0219193804475708  0.1520000000000010   F   F   F
  0.8024228513551462  0.5771607904541317  0.2716004289046365   T   T   T
  0.1348670739529066  0.5776873519690424  0.2723961203067808   T   T   T
  0.8022167047956990  0.2451819097493265  0.2720523036019608   T   T   T
  0.8032738037938514  0.9107943930277322  0.2732118315908634   T   T   T
  0.4685637148022421  0.9111851889163342  0.2729239633377309   T   T   T
  0.1356945168396640  0.9108729195914846  0.2723117428618968   T   T   T
  0.4686958451760548  0.2451893388114673  0.2737893386379152   T   T   T
  0.1363003536876826  0.2444147430265663  0.2741927531471672   T   T   T
  0.4684399966255579  0.5761686739273222  0.2745311834159282   T   T   T
  0.9085675915498836  0.1390452895256501  0.3923519295031596   T   T   T
  0.2457074825712892  0.1189803372230762  0.3931932230546553   T   T   T
  0.5972372854960651  0.4748443750228653  0.3933535003772977   T   T   T
  0.2370043163242519  0.4753268996266884  0.3934010534355871   T   T   T
  0.9103341987061885  0.7912839957825288  0.3929444746928816   T   T   T
  0.2500252364480859  0.8015976681029041  0.3943308727907224   T   T   T
  0.9114280719698052  0.4645734922097664  0.3942431085451655   T   T   T
  0.5808289719257744  0.1329735341572315  0.3935766815463255   T   T   T
  0.5811238892416766  0.8010618308810962  0.3937111216994380   T   T   T
  0.9995038381630628  1.0004274052417750  0.4774790871269745   T   T   T
  0.1354806511589928  0.9108127024983759  0.0000000000000000   F   F   F
  0.1354806511589928  0.2441460358317116  0.0000000000000000   F   F   F
  0.8021473178256642  0.5774793691650402  0.0000000000000000   F   F   F
  0.4688139844923285  0.5774793691650402  0.0000000000000000   F   F   F
  0.4688139844923284  0.9108127024983759  0.0000000000000000   F   F   F
  0.8021473178256642  0.9108127024983759  0.0000000000000000   F   F   F
  0.4688139844923285  0.2441460358317116  0.0000000000000000   F   F   F
  0.8021473178256643  0.2441460358317116  0.0000000000000000   F   F   F
  0.1354806511589928  0.5774793691650402  0.0000000000000000   F   F   F
  0.0243739906572245  0.3552527070113669  0.0608000000000004   F   F   F
  0.0243739906572250  0.6885860403447168  0.0608000000000004   F   F   F
  0.6910406573238888  0.3552527070113669  0.0608000000000004   F   F   F
  0.3577073239905602  0.3552527070113669  0.0608000000000004   F   F   F
  0.3577073239905610  0.6885860403447168  0.0608000000000004   F   F   F
  0.6910406573238889  0.6885860403447168  0.0608000000000004   F   F   F
  0.0243739906572245  0.0219193736780525  0.0608000000000004   F   F   F
  0.3577073239905610  0.0219193736780525  0.0608000000000004   F   F   F
  0.6910406573238888  0.0219193736780525  0.0608000000000004   F   F   F
  0.9132673301554561  0.4663593781910578  0.1216000000000008   F   F   F
  0.5799339968221275  0.4663593781910578  0.1216000000000008   F   F   F
  0.5799339968221208  0.1330260448577292  0.1216000000000008   F   F   F
  0.9132673301554562  0.1330260448577292  0.1216000000000008   F   F   F
  0.2466006634887847  0.1330260448577292  0.1216000000000008   F   F   F
  0.2466006634887848  0.7996927115243723  0.1216000000000008   F   F   F
  0.2466006634888132  0.4663593781910578  0.1216000000000008   F   F   F
  0.5799339968221205  0.7996927115243723  0.1216000000000008   F   F   F
  0.9132673301554634  0.7996927115243723  0.1216000000000008   F   F   F
  0.1354806696536814  0.5774793827040842  0.1824000000000012   F   F   F
  0.1354806696536671  0.9108127160374198  0.1824000000000012   F   F   F
  0.4688140029870526  0.5774793827040842  0.1824000000000012   F   F   F
  0.8021473363203667  0.5774793827040842  0.1824000000000012   F   F   F
  0.8021473363203456  0.9108127160374198  0.1824000000000012   F   F   F
  0.4688140029870028  0.9108127160374198  0.1824000000000012   F   F   F
  0.1354806696536816  0.2441460493707487  0.1824000000000012   F   F   F
  0.8021473363203528  0.2441460493707487  0.1824000000000012   F   F   F
  0.4688140029870101  0.2441460493707487  0.1824000000000012   F   F   F
  0.6910904952171890  0.3548459973206886  0.2419701525807336   T   T   T
  0.0250754367520362  0.6888462952033281  0.2422087990162713   T   T   T
  0.0241822951840943  0.3552777995504598  0.2420848279181637   T   T   T
  0.6910267619409038  0.6895896346323890  0.2423611157247760   T   T   T
  0.3583738049426008  0.0216984697603587  0.2422872297442310   T   T   T
  0.3588913293797964  0.6895356814554227  0.2432010839838904   T   T   T
  0.6904831955279290  0.0213815830252678  0.2433872516470764   T   T   T
  0.0238925908624221  0.0216904916935842  0.2428441797816411   T   T   T
  0.3575885158886079  0.3558529643136751  0.2434958022102102   T   T   T
  0.5831980049946163  0.4680948325192268  0.3017139701941785   T   T   T
  0.2468763134398628  0.1311112571983348  0.3019099342097583   T   T   T
  0.9164717641180494  0.1368231375606361  0.3035110906913468   T   T   T
  0.2432231088269131  0.4656387169204453  0.3025425923721629   T   T   T
  0.9120994614374679  0.7981163558357742  0.3028443479761094   T   T   T
  0.9127746321789336  0.4650423981733833  0.3028380388382212   T   T   T
  0.2472414025786140  0.8021014281760157  0.3038913990922208   T   T   T
  0.5775670541539503  0.1358013136962610  0.3041139034402369   T   T   T
  0.5819862802598972  0.7969205441372479  0.3055023852038972   T   T   T
  0.8000870510515523  0.2415904150146841  0.3607679848213145   T   T   T
  0.8132807609759328  0.9191468908740830  0.3631498288165259   T   T   T
  0.4731893133151203  0.9128796414154234  0.3610939165702243   T   T   T
  0.8084923193623051  0.5794571280073074  0.3619592286490988   T   T   T
  0.1318691032691122  0.5823280016628399  0.3628573007827705   T   T   T
  0.1285828796452815  0.9069748824982113  0.3636275008100509   T   T   T
  0.4668290076433969  0.2476839225489988  0.3670041692125289   T   T   T
  0.4656736694901349  0.5716174369917145  0.3668987073954919   T   T   T
  0.1346256301044339  0.2393702355145589  0.3682930283176332   T   T   T
  0.6924423332747535  0.0233560093399557  0.4236809178448615   T   T   T
  0.0212187929425313  0.6891670428714064  0.4260545141371757   T   T   T
  0.3640606123806155  0.7050277675628180  0.4259244600141958   T   T   T
  0.3639499614604189  0.0124471671556105  0.4260858699705495   T   T   T
  0.7034562729430952  0.7038822361556573  0.4257969205234703   T   T   T
  0.7019240714667717  0.3499930552940728  0.4261036899836567   T   T   T
  0.0076415735022072  0.3499130732328342  0.4261707966478324   T   T   T
  0.0158930280104562  0.0144406369036660  0.4408555188867443   T   T   T
  0.3631331771455336  0.3612809177402407  0.4777381420777628   T   T   T
  0.3579921852594207  0.3823072685214889  0.5672165762457836   T   T   T
 
  0.00000000E+00  0.00000000E+00  0.00000000E+00
  0.00000000E+00  0.00000000E+00  0.00000000E+00
  0.00000000E+00  0.00000000E+00  0.00000000E+00
  0.00000000E+00  0.00000000E+00  0.00000000E+00
  0.00000000E+00  0.00000000E+00  0.00000000E+00
  0.00000000E+00  0.00000000E+00  0.00000000E+00
  0.00000000E+00  0.00000000E+00  0.00000000E+00
  0.00000000E+00  0.00000000E+00  0.00000000E+00
  0.00000000E+00  0.00000000E+00  0.00000000E+00
  0.00000000E+00  0.00000000E+00  0.00000000E+00
  0.00000000E+00  0.00000000E+00  0.00000000E+00
  0.00000000E+00  0.00000000E+00  0.00000000E+00
  0.00000000E+00  0.00000000E+00  0.00000000E+00
  0.00000000E+00  0.00000000E+00  0.00000000E+00
  0.00000000E+00  0.00000000E+00  0.00000000E+00
  0.00000000E+00  0.00000000E+00  0.00000000E+00
  0.00000000E+00  0.00000000E+00  0.00000000E+00
  0.00000000E+00  0.00000000E+00  0.00000000E+00
  0.00000000E+00  0.00000000E+00  0.00000000E+00
  0.00000000E+00  0.00000000E+00  0.00000000E+00
  0.00000000E+00  0.00000000E+00  0.00000000E+00
  0.00000000E+00  0.00000000E+00  0.00000000E+00
  0.00000000E+00  0.00000000E+00  0.00000000E+00
  0.00000000E+00  0.00000000E+00  0.00000000E+00
  0.00000000E+00  0.00000000E+00  0.00000000E+00
  0.00000000E+00  0.00000000E+00  0.00000000E+00
  0.00000000E+00  0.00000000E+00  0.00000000E+00
  0.00000000E+00  0.00000000E+00  0.00000000E+00
  0.00000000E+00  0.00000000E+00  0.00000000E+00
  0.00000000E+00  0.00000000E+00  0.00000000E+00
  0.00000000E+00  0.00000000E+00  0.00000000E+00
  0.00000000E+00  0.00000000E+00  0.00000000E+00
  0.00000000E+00  0.00000000E+00  0.00000000E+00
  0.00000000E+00  0.00000000E+00  0.00000000E+00
  0.00000000E+00  0.00000000E+00  0.00000000E+00
  0.00000000E+00  0.00000000E+00  0.00000000E+00
  0.00000000E+00  0.00000000E+00  0.00000000E+00
  0.00000000E+00  0.00000000E+00  0.00000000E+00
  0.00000000E+00  0.00000000E+00  0.00000000E+00
  0.00000000E+00  0.00000000E+00  0.00000000E+00
  0.00000000E+00  0.00000000E+00  0.00000000E+00
  0.00000000E+00  0.00000000E+00  0.00000000E+00
  0.00000000E+00  0.00000000E+00  0.00000000E+00
  0.00000000E+00  0.00000000E+00  0.00000000E+00
  0.00000000E+00  0.00000000E+00  0.00000000E+00
  0.00000000E+00  0.00000000E+00  0.00000000E+00
  0.00000000E+00  0.00000000E+00  0.00000000E+00
  0.00000000E+00  0.00000000E+00  0.00000000E+00
  0.00000000E+00  0.00000000E+00  0.00000000E+00
  0.00000000E+00  0.00000000E+00  0.00000000E+00
  0.00000000E+00  0.00000000E+00  0.00000000E+00
  0.00000000E+00  0.00000000E+00  0.00000000E+00
  0.00000000E+00  0.00000000E+00  0.00000000E+00
  0.00000000E+00  0.00000000E+00  0.00000000E+00
  0.00000000E+00  0.00000000E+00  0.00000000E+00
  0.00000000E+00  0.00000000E+00  0.00000000E+00
  0.00000000E+00  0.00000000E+00  0.00000000E+00
  0.00000000E+00  0.00000000E+00  0.00000000E+00
  0.00000000E+00  0.00000000E+00  0.00000000E+00
  0.00000000E+00  0.00000000E+00  0.00000000E+00
  0.00000000E+00  0.00000000E+00  0.00000000E+00
  0.00000000E+00  0.00000000E+00  0.00000000E+00
  0.00000000E+00  0.00000000E+00  0.00000000E+00
  0.00000000E+00  0.00000000E+00  0.00000000E+00
  0.00000000E+00  0.00000000E+00  0.00000000E+00
  0.00000000E+00  0.00000000E+00  0.00000000E+00
  0.00000000E+00  0.00000000E+00  0.00000000E+00
  0.00000000E+00  0.00000000E+00  0.00000000E+00
  0.00000000E+00  0.00000000E+00  0.00000000E+00
  0.00000000E+00  0.00000000E+00  0.00000000E+00
  0.00000000E+00  0.00000000E+00  0.00000000E+00
  0.00000000E+00  0.00000000E+00  0.00000000E+00
  0.00000000E+00  0.00000000E+00  0.00000000E+00
  0.00000000E+00  0.00000000E+00  0.00000000E+00
  0.00000000E+00  0.00000000E+00  0.00000000E+00
  0.00000000E+00  0.00000000E+00  0.00000000E+00
  0.00000000E+00  0.00000000E+00  0.00000000E+00
  0.00000000E+00  0.00000000E+00  0.00000000E+00
  0.00000000E+00  0.00000000E+00  0.00000000E+00
  0.00000000E+00  0.00000000E+00  0.00000000E+00
  0.00000000E+00  0.00000000E+00  0.00000000E+00
  0.00000000E+00  0.00000000E+00  0.00000000E+00
  0.00000000E+00  0.00000000E+00  0.00000000E+00
  0.00000000E+00  0.00000000E+00  0.00000000E+00
  0.00000000E+00  0.00000000E+00  0.00000000E+00
  0.00000000E+00  0.00000000E+00  0.00000000E+00
  0.00000000E+00  0.00000000E+00  0.00000000E+00
  0.00000000E+00  0.00000000E+00  0.00000000E+00
  0.00000000E+00  0.00000000E+00  0.00000000E+00
  0.00000000E+00  0.00000000E+00  0.00000000E+00
  0.00000000E+00  0.00000000E+00  0.00000000E+00
  0.00000000E+00  0.00000000E+00  0.00000000E+00
  0.00000000E+00  0.00000000E+00  0.00000000E+00
  0.00000000E+00  0.00000000E+00  0.00000000E+00
  0.00000000E+00  0.00000000E+00  0.00000000E+00
  0.00000000E+00  0.00000000E+00  0.00000000E+00
  0.00000000E+00  0.00000000E+00  0.00000000E+00
  0.00000000E+00  0.00000000E+00  0.00000000E+00
  0.00000000E+00  0.00000000E+00  0.00000000E+00
  0.00000000E+00  0.00000000E+00  0.00000000E+00
  0.00000000E+00  0.00000000E+00  0.00000000E+00
  0.00000000E+00  0.00000000E+00  0.00000000E+00
  0.00000000E+00  0.00000000E+00  0.00000000E+00
  0.00000000E+00  0.00000000E+00  0.00000000E+00
  0.00000000E+00  0.00000000E+00  0.00000000E+00
  0.00000000E+00  0.00000000E+00  0.00000000E+00
  0.00000000E+00  0.00000000E+00  0.00000000E+00
  0.00000000E+00  0.00000000E+00  0.00000000E+00
  0.00000000E+00  0.00000000E+00  0.00000000E+00
  0.00000000E+00  0.00000000E+00  0.00000000E+00
  0.00000000E+00  0.00000000E+00  0.00000000E+00
