ov16n                                   
   1.00000000000000     
    15.5563000000000002    0.0000000000000000    0.0000000000000000
    -7.7781500000000001   13.4721510000000002    0.0000000000000000
     0.0000010000000000    0.0000010000000000   26.1140000000000008
   Ce   H    O 
    64     1   127
Selective dynamics
Direct
  0.4166700000000034  0.5833299999999966  0.0304000000000002   F   F   F
  0.4166700000000034  0.8333299999999966  0.0304000000000002   F   F   F
  0.6666700000000034  0.8333299999999966  0.0304000000000002   F   F   F
  0.6666700000000034  0.5833299999999966  0.0304000000000002   F   F   F
  0.9166700000000034  0.5833299999999966  0.0304000000000002   F   F   F
  0.9166700000000034  0.8333299999999966  0.0304000000000002   F   F   F
  0.1666700000000034  0.3333299999999966  0.0304000000000002   F   F   F
  0.1666700000000034  0.0833299999999966  0.0304000000000002   F   F   F
  0.4166700000000034  0.0833299999999966  0.0304000000000002   F   F   F
  0.4166700000000034  0.3333299999999966  0.0304000000000002   F   F   F
  0.6666700000000034  0.3333299999999966  0.0304000000000002   F   F   F
  0.6666700000000034  0.0833299999999966  0.0304000000000002   F   F   F
  0.9166700000000034  0.0833299999999966  0.0304000000000002   F   F   F
  0.9166700000000176  0.3333299999999966  0.0304000000000002   F   F   F
  0.1666699999999963  0.8333299999999966  0.0304000000000002   F   F   F
  0.1666700000000034  0.5833299999999966  0.0304000000000002   F   F   F
  0.0000000000000000  0.5000000000000000  0.1520000000000010   F   F   F
  0.0000000000000000  0.7500000000000000  0.1520000000000010   F   F   F
  0.2499999999999929  0.7500000000000000  0.1520000000000010   F   F   F
  0.2500000000000071  0.5000000000000000  0.1520000000000010   F   F   F
  0.5000000000000000  0.5000000000000000  0.1520000000000010   F   F   F
  0.5000000000000000  0.7500000000000000  0.1520000000000010   F   F   F
  0.7500000000000000  0.7500000000000000  0.1520000000000010   F   F   F
  0.7500000000000000  0.5000000000000000  0.1520000000000010   F   F   F
  0.0000000000000000  0.0000000000000000  0.1520000000000010   F   F   F
  0.0000000000000000  0.2500000000000071  0.1520000000000010   F   F   F
  0.2500000000000000  0.2500000000000071  0.1520000000000010   F   F   F
  0.2500000000000071  0.0000000000000000  0.1520000000000010   F   F   F
  0.5000000000000000  0.0000000000000000  0.1520000000000010   F   F   F
  0.5000000000000000  0.2500000000000071  0.1520000000000010   F   F   F
  0.7500000000000000  0.2500000000000071  0.1520000000000010   F   F   F
  0.7500000000000000  0.0000000000000000  0.1520000000000010   F   F   F
  0.0831999254532079  0.4174317891583499  0.2721304014749961   T   T   T
  0.5831003574454598  0.4173870007558094  0.2744570064611906   T   T   T
  0.3328499897529653  0.6672889746680255  0.2724782945780575   T   T   T
  0.5828424658911899  0.6657531533466496  0.2750345353247425   T   T   T
  0.0832151597315942  0.6665243347317329  0.2727339438558971   T   T   T
  0.8339400352623727  0.6668973958426179  0.2722867290469466   T   T   T
  0.8337719828422578  0.9164385216160866  0.2728895896488766   T   T   T
  0.3334337208111791  0.9167312131856065  0.2731377929142127   T   T   T
  0.5834766063781771  0.9166880022063637  0.2729819072574102   T   T   T
  0.8331445348839566  0.4169490058698315  0.2725867145292540   T   T   T
  0.8339328398873462  0.1671339406965089  0.2726349173566120   T   T   T
  0.5833951744867107  0.1669436653436591  0.2728503900438568   T   T   T
  0.3339341247594731  0.4171586626935309  0.2747984232796767   T   T   T
  0.0827763058019144  0.9156969402389166  0.2722919053344555   T   T   T
  0.3328597182184723  0.1658215055194390  0.2725449302459779   T   T   T
  0.0844912521936863  0.1672429759070226  0.2733516332114121   T   T   T
  0.1624700332047837  0.3389242995002135  0.3931414591415816   T   T   T
  0.4140540316092327  0.3196320088994895  0.3931762041596656   T   T   T
  0.4181985779113759  0.8370933489702779  0.3938085737039643   T   T   T
  0.6678215662459337  0.8351968984290536  0.3940613567323368   T   T   T
  0.4084127939100881  0.5920406057425893  0.3937174159449981   T   T   T
  0.1628952536864361  0.5843221442909936  0.3936953413067528   T   T   T
  0.6831809265703441  0.5918383930345854  0.3935730476421213   T   T   T
  0.6681446064621142  0.0838426762288478  0.3923789511390936   T   T   T
  0.9177155858286525  0.8348633126568075  0.3936514755002278   T   T   T
  0.1656500839470922  0.8311543971732647  0.3945030187279670   T   T   T
  0.6686021776370197  0.3328888396681293  0.3939192661400881   T   T   T
  0.9151601717364741  0.3331127043333098  0.3923435197179899   T   T   T
  0.4185329258069785  0.0811025669629615  0.3937987093392437   T   T   T
  0.9176408208286659  0.0842896043336765  0.3926302783446332   T   T   T
  0.9184934342621816  0.5821892513417239  0.3938421603103279   T   T   T
  0.1612259981194697  0.0727468513814173  0.3926322163412550   T   T   T
  0.2340608041072656  0.2353032314390191  0.4778507006805341   T   T   T
  0.0833299999999966  0.6666700000000034  0.0000000000000000   F   F   F
  0.0833299999999895  0.9166700000000034  0.0000000000000000   F   F   F
  0.3333299999999966  0.9166700000000034  0.0000000000000000   F   F   F
  0.3333299999999966  0.4166700000000034  0.0000000000000000   F   F   F
  0.8333299999999966  0.6666700000000034  0.0000000000000000   F   F   F
  0.5833299999999966  0.6666700000000034  0.0000000000000000   F   F   F
  0.5833299999999966  0.9166700000000034  0.0000000000000000   F   F   F
  0.8333299999999966  0.9166700000000034  0.0000000000000000   F   F   F
  0.3333299999999966  0.1666700000000034  0.0000000000000000   F   F   F
  0.8333300000000037  0.1666700000000034  0.0000000000000000   F   F   F
  0.5833299999999966  0.1666700000000034  0.0000000000000000   F   F   F
  0.5833299999999966  0.4166700000000034  0.0000000000000000   F   F   F
  0.0833299999999966  0.1666700000000034  0.0000000000000000   F   F   F
  0.8333300000000108  0.4166700000000034  0.0000000000000000   F   F   F
  0.3333299999999966  0.6666700000000034  0.0000000000000000   F   F   F
  0.0833299999999966  0.4166700000000034  0.0000000000000000   F   F   F
  0.2499999999999929  0.4999999999999929  0.0608000000000004   F   F   F
  0.9999999999999929  0.4999999999999929  0.0608000000000004   F   F   F
  0.9999999999999929  0.7500000000000071  0.0608000000000004   F   F   F
  0.2500000000000000  0.7500000000000071  0.0608000000000004   F   F   F
  0.7500000000000000  0.4999999999999929  0.0608000000000004   F   F   F
  0.5000000000000071  0.4999999999999929  0.0608000000000004   F   F   F
  0.5000000000000000  0.7500000000000071  0.0608000000000004   F   F   F
  0.7500000000000071  0.7500000000000071  0.0608000000000004   F   F   F
  0.2500000000000000  0.0000000000000000  0.0608000000000004   F   F   F
  0.0000000000000000  0.0000000000000000  0.0608000000000004   F   F   F
  0.0000000000000000  0.2500000000000000  0.0608000000000004   F   F   F
  0.2500000000000000  0.2500000000000000  0.0608000000000004   F   F   F
  0.7500000000000000  0.0000000000000000  0.0608000000000004   F   F   F
  0.5000000000000000  0.0000000000000000  0.0608000000000004   F   F   F
  0.5000000000000000  0.2500000000000000  0.0608000000000004   F   F   F
  0.7500000000000000  0.2500000000000000  0.0608000000000004   F   F   F
  0.1666700000000105  0.0833299999999966  0.1216000000000008   F   F   F
  0.9166700000000105  0.8333299999999753  0.1216000000000008   F   F   F
  0.9166700000000105  0.5833299999999895  0.1216000000000008   F   F   F
  0.6666700000000176  0.5833299999999895  0.1216000000000008   F   F   F
  0.1666700000000034  0.3333299999999966  0.1216000000000008   F   F   F
  0.6666700000000034  0.3333299999999966  0.1216000000000008   F   F   F
  0.9166700000000034  0.3333299999999966  0.1216000000000008   F   F   F
  0.9166700000000105  0.0833299999999966  0.1216000000000008   F   F   F
  0.6666700000000034  0.0833299999999966  0.1216000000000008   F   F   F
  0.4166700000000034  0.3333299999999966  0.1216000000000008   F   F   F
  0.1666699999999963  0.8333299999999753  0.1216000000000008   F   F   F
  0.4166700000000034  0.8333299999999753  0.1216000000000008   F   F   F
  0.4166700000000105  0.5833299999999895  0.1216000000000008   F   F   F
  0.4166700000000176  0.0833299999999966  0.1216000000000008   F   F   F
  0.1666700000000034  0.5833299999999895  0.1216000000000008   F   F   F
  0.6666700000000034  0.8333299999999753  0.1216000000000008   F   F   F
  0.0833299999999966  0.6666700000000105  0.1824000000000012   F   F   F
  0.3333300000000037  0.6666700000000105  0.1824000000000012   F   F   F
  0.3333299999999966  0.9166700000000034  0.1824000000000012   F   F   F
  0.0833299999999966  0.9166700000000034  0.1824000000000012   F   F   F
  0.5833300000000108  0.6666700000000105  0.1824000000000012   F   F   F
  0.8333300000000108  0.6666700000000105  0.1824000000000012   F   F   F
  0.8333300000000108  0.9166700000000034  0.1824000000000012   F   F   F
  0.5833299999999966  0.9166700000000034  0.1824000000000012   F   F   F
  0.0833299999999966  0.1666700000000034  0.1824000000000012   F   F   F
  0.3333300000000037  0.1666700000000034  0.1824000000000012   F   F   F
  0.3333300000000037  0.4166700000000034  0.1824000000000012   F   F   F
  0.0833299999999966  0.4166700000000034  0.1824000000000012   F   F   F
  0.5833299999999966  0.1666700000000034  0.1824000000000012   F   F   F
  0.8333300000000179  0.1666700000000034  0.1824000000000012   F   F   F
  0.8333300000000179  0.4166700000000034  0.1824000000000012   F   F   F
  0.5833300000000108  0.4166700000000034  0.1824000000000012   F   F   F
  0.2496947212216156  0.4997251874294975  0.2425791242610131   T   T   T
  0.4994642150145197  0.4999479911240599  0.2442078311887315   T   T   T
  0.7497158011152010  0.4992997150296361  0.2425588739569946   T   T   T
  0.9997382687463343  0.4998202624056134  0.2421006081259378   T   T   T
  0.7498401131663925  0.7507209805901880  0.2427823096440918   T   T   T
  0.2502444861621456  0.7504732384519031  0.2425663768655326   T   T   T
  0.5004895701429746  0.7502474751759323  0.2430695198101986   T   T   T
  0.0002830059138859  0.7500409914973716  0.2423878512650575   T   T   T
  0.7492992525795614  0.2506248221787857  0.2426621358188683   T   T   T
  0.9999445766424557  0.0005041895618874  0.2423304820147933   T   T   T
  0.2501897777007187  0.9998638924430736  0.2425669332047846   T   T   T
  0.5002092320907465  0.2498015882730584  0.2427794430541468   T   T   T
  0.0013688175203725  0.2504049906849062  0.2425937654088486   T   T   T
  0.5000964208016185  0.0006643306392959  0.2427100491698226   T   T   T
  0.7507195295519224  0.9993149866058815  0.2430991036946608   T   T   T
  0.2492567067717744  0.2499258871061301  0.2432951173658395   T   T   T
  0.1645670493094613  0.0805785778327675  0.3032823394530055   T   T   T
  0.4177157602115642  0.8348211987573038  0.3034446157964794   T   T   T
  0.6654851370283055  0.8305471954478847  0.3054042520757321   T   T   T
  0.4155650377824500  0.3308315383799538  0.3025087741597829   T   T   T
  0.1684679036250714  0.3362058538837758  0.3048215562849350   T   T   T
  0.1655321419766267  0.5830800370083864  0.3031022449770333   T   T   T
  0.6694857375774816  0.5847297873781869  0.3022715505518292   T   T   T
  0.9168150184379797  0.8340980971742766  0.3030898877124244   T   T   T
  0.1668963880954593  0.8330412039377322  0.3038967626255342   T   T   T
  0.9159781412695054  0.3321613524978915  0.3026041397249415   T   T   T
  0.6650108599825515  0.3349822931346722  0.3051162167202435   T   T   T
  0.9168891561350918  0.5825834420814928  0.3031395490652073   T   T   T
  0.6686924045159799  0.0842561371474915  0.3027672306225568   T   T   T
  0.4164978394392804  0.0840509997680527  0.3042254709402599   T   T   T
  0.9200506175002729  0.0860726743648925  0.3042193263510953   T   T   T
  0.4141933768842847  0.5833498231527940  0.3030639912139250   T   T   T
  0.3341580919285363  0.9173354704993457  0.3630922693187557   T   T   T
  0.8358011439820530  0.9207304026086263  0.3616636485776397   T   T   T
  0.0796480712997578  0.4161815191462992  0.3613367161892498   T   T   T
  0.5810572996332510  0.4192554251485276  0.3680206223659539   T   T   T
  0.0824507021006013  0.6658519465102160  0.3624390837894538   T   T   T
  0.8408701026529712  0.6704720057301543  0.3623011248585186   T   T   T
  0.3291866123823226  0.6707754003421371  0.3625493804470494   T   T   T
  0.5805624289855658  0.6617624239945741  0.3681449903531089   T   T   T
  0.5858379145964818  0.9205882015385782  0.3617581728367085   T   T   T
  0.5855697389576733  0.1650127035778937  0.3614901516337170   T   T   T
  0.8343213171681683  0.1669419015075917  0.3623700423120368   T   T   T
  0.8345284692431676  0.4145545634131196  0.3613394855112730   T   T   T
  0.0817713459564047  0.9144952202972618  0.3622199958291574   T   T   T
  0.3330028839820045  0.4138159459888584  0.3697747450105808   T   T   T
  0.3261818340133402  0.1609349872207062  0.3637045765367262   T   T   T
  0.0904595624786708  0.1703810441688489  0.3641877843330477   T   T   T
  0.2344398039483693  0.4969607519873165  0.4256752495163596   T   T   T
  0.5028174807233512  0.7641756520528631  0.4252374920931317   T   T   T
  0.7524673207390791  0.0017032401090020  0.4230387062497272   T   T   T
  0.5009444061898023  0.0011658983691518  0.4239660865849828   T   T   T
  0.2468221953130652  0.7509576202530184  0.4246602028338273   T   T   T
  0.7611273793412252  0.7642613768641624  0.4253607604980729   T   T   T
  0.9990137498735905  0.4993683175731434  0.4238922420552456   T   T   T
  0.7605801180566729  0.4961838549051976  0.4252394354761790   T   T   T
  0.7508933584108775  0.2500374066719573  0.4231436242975093   T   T   T
  0.0004635625070222  0.2512511258739067  0.4229757943763062   T   T   T
  0.5032082360525152  0.2388846538725744  0.4250231754106295   T   T   T
  0.0028395794204314  0.7507809727886254  0.4246346986152787   T   T   T
  0.2455896999283951  0.9961260589796339  0.4243674347820203   T   T   T
  0.0017043060390520  0.0003247549541854  0.4235900349525181   T   T   T
  0.2412863333677109  0.2408624051701977  0.4407878636539948   T   T   T
 
  0.00000000E+00  0.00000000E+00  0.00000000E+00
  0.00000000E+00  0.00000000E+00  0.00000000E+00
  0.00000000E+00  0.00000000E+00  0.00000000E+00
  0.00000000E+00  0.00000000E+00  0.00000000E+00
  0.00000000E+00  0.00000000E+00  0.00000000E+00
  0.00000000E+00  0.00000000E+00  0.00000000E+00
  0.00000000E+00  0.00000000E+00  0.00000000E+00
  0.00000000E+00  0.00000000E+00  0.00000000E+00
  0.00000000E+00  0.00000000E+00  0.00000000E+00
  0.00000000E+00  0.00000000E+00  0.00000000E+00
  0.00000000E+00  0.00000000E+00  0.00000000E+00
  0.00000000E+00  0.00000000E+00  0.00000000E+00
  0.00000000E+00  0.00000000E+00  0.00000000E+00
  0.00000000E+00  0.00000000E+00  0.00000000E+00
  0.00000000E+00  0.00000000E+00  0.00000000E+00
  0.00000000E+00  0.00000000E+00  0.00000000E+00
  0.00000000E+00  0.00000000E+00  0.00000000E+00
  0.00000000E+00  0.00000000E+00  0.00000000E+00
  0.00000000E+00  0.00000000E+00  0.00000000E+00
  0.00000000E+00  0.00000000E+00  0.00000000E+00
  0.00000000E+00  0.00000000E+00  0.00000000E+00
  0.00000000E+00  0.00000000E+00  0.00000000E+00
  0.00000000E+00  0.00000000E+00  0.00000000E+00
  0.00000000E+00  0.00000000E+00  0.00000000E+00
  0.00000000E+00  0.00000000E+00  0.00000000E+00
  0.00000000E+00  0.00000000E+00  0.00000000E+00
  0.00000000E+00  0.00000000E+00  0.00000000E+00
  0.00000000E+00  0.00000000E+00  0.00000000E+00
  0.00000000E+00  0.00000000E+00  0.00000000E+00
  0.00000000E+00  0.00000000E+00  0.00000000E+00
  0.00000000E+00  0.00000000E+00  0.00000000E+00
  0.00000000E+00  0.00000000E+00  0.00000000E+00
  0.00000000E+00  0.00000000E+00  0.00000000E+00
  0.00000000E+00  0.00000000E+00  0.00000000E+00
  0.00000000E+00  0.00000000E+00  0.00000000E+00
  0.00000000E+00  0.00000000E+00  0.00000000E+00
  0.00000000E+00  0.00000000E+00  0.00000000E+00
  0.00000000E+00  0.00000000E+00  0.00000000E+00
  0.00000000E+00  0.00000000E+00  0.00000000E+00
  0.00000000E+00  0.00000000E+00  0.00000000E+00
  0.00000000E+00  0.00000000E+00  0.00000000E+00
  0.00000000E+00  0.00000000E+00  0.00000000E+00
  0.00000000E+00  0.00000000E+00  0.00000000E+00
  0.00000000E+00  0.00000000E+00  0.00000000E+00
  0.00000000E+00  0.00000000E+00  0.00000000E+00
  0.00000000E+00  0.00000000E+00  0.00000000E+00
  0.00000000E+00  0.00000000E+00  0.00000000E+00
  0.00000000E+00  0.00000000E+00  0.00000000E+00
  0.00000000E+00  0.00000000E+00  0.00000000E+00
  0.00000000E+00  0.00000000E+00  0.00000000E+00
  0.00000000E+00  0.00000000E+00  0.00000000E+00
  0.00000000E+00  0.00000000E+00  0.00000000E+00
  0.00000000E+00  0.00000000E+00  0.00000000E+00
  0.00000000E+00  0.00000000E+00  0.00000000E+00
  0.00000000E+00  0.00000000E+00  0.00000000E+00
  0.00000000E+00  0.00000000E+00  0.00000000E+00
  0.00000000E+00  0.00000000E+00  0.00000000E+00
  0.00000000E+00  0.00000000E+00  0.00000000E+00
  0.00000000E+00  0.00000000E+00  0.00000000E+00
  0.00000000E+00  0.00000000E+00  0.00000000E+00
  0.00000000E+00  0.00000000E+00  0.00000000E+00
  0.00000000E+00  0.00000000E+00  0.00000000E+00
  0.00000000E+00  0.00000000E+00  0.00000000E+00
  0.00000000E+00  0.00000000E+00  0.00000000E+00
  0.00000000E+00  0.00000000E+00  0.00000000E+00
  0.00000000E+00  0.00000000E+00  0.00000000E+00
  0.00000000E+00  0.00000000E+00  0.00000000E+00
  0.00000000E+00  0.00000000E+00  0.00000000E+00
  0.00000000E+00  0.00000000E+00  0.00000000E+00
  0.00000000E+00  0.00000000E+00  0.00000000E+00
  0.00000000E+00  0.00000000E+00  0.00000000E+00
  0.00000000E+00  0.00000000E+00  0.00000000E+00
  0.00000000E+00  0.00000000E+00  0.00000000E+00
  0.00000000E+00  0.00000000E+00  0.00000000E+00
  0.00000000E+00  0.00000000E+00  0.00000000E+00
  0.00000000E+00  0.00000000E+00  0.00000000E+00
  0.00000000E+00  0.00000000E+00  0.00000000E+00
  0.00000000E+00  0.00000000E+00  0.00000000E+00
  0.00000000E+00  0.00000000E+00  0.00000000E+00
  0.00000000E+00  0.00000000E+00  0.00000000E+00
  0.00000000E+00  0.00000000E+00  0.00000000E+00
  0.00000000E+00  0.00000000E+00  0.00000000E+00
  0.00000000E+00  0.00000000E+00  0.00000000E+00
  0.00000000E+00  0.00000000E+00  0.00000000E+00
  0.00000000E+00  0.00000000E+00  0.00000000E+00
  0.00000000E+00  0.00000000E+00  0.00000000E+00
  0.00000000E+00  0.00000000E+00  0.00000000E+00
  0.00000000E+00  0.00000000E+00  0.00000000E+00
  0.00000000E+00  0.00000000E+00  0.00000000E+00
  0.00000000E+00  0.00000000E+00  0.00000000E+00
  0.00000000E+00  0.00000000E+00  0.00000000E+00
  0.00000000E+00  0.00000000E+00  0.00000000E+00
  0.00000000E+00  0.00000000E+00  0.00000000E+00
  0.00000000E+00  0.00000000E+00  0.00000000E+00
  0.00000000E+00  0.00000000E+00  0.00000000E+00
  0.00000000E+00  0.00000000E+00  0.00000000E+00
  0.00000000E+00  0.00000000E+00  0.00000000E+00
  0.00000000E+00  0.00000000E+00  0.00000000E+00
  0.00000000E+00  0.00000000E+00  0.00000000E+00
  0.00000000E+00  0.00000000E+00  0.00000000E+00
  0.00000000E+00  0.00000000E+00  0.00000000E+00
  0.00000000E+00  0.00000000E+00  0.00000000E+00
  0.00000000E+00  0.00000000E+00  0.00000000E+00
  0.00000000E+00  0.00000000E+00  0.00000000E+00
  0.00000000E+00  0.00000000E+00  0.00000000E+00
  0.00000000E+00  0.00000000E+00  0.00000000E+00
  0.00000000E+00  0.00000000E+00  0.00000000E+00
  0.00000000E+00  0.00000000E+00  0.00000000E+00
  0.00000000E+00  0.00000000E+00  0.00000000E+00
  0.00000000E+00  0.00000000E+00  0.00000000E+00
  0.00000000E+00  0.00000000E+00  0.00000000E+00
  0.00000000E+00  0.00000000E+00  0.00000000E+00
  0.00000000E+00  0.00000000E+00  0.00000000E+00
  0.00000000E+00  0.00000000E+00  0.00000000E+00
  0.00000000E+00  0.00000000E+00  0.00000000E+00
  0.00000000E+00  0.00000000E+00  0.00000000E+00
  0.00000000E+00  0.00000000E+00  0.00000000E+00
  0.00000000E+00  0.00000000E+00  0.00000000E+00
  0.00000000E+00  0.00000000E+00  0.00000000E+00
  0.00000000E+00  0.00000000E+00  0.00000000E+00
  0.00000000E+00  0.00000000E+00  0.00000000E+00
  0.00000000E+00  0.00000000E+00  0.00000000E+00
  0.00000000E+00  0.00000000E+00  0.00000000E+00
  0.00000000E+00  0.00000000E+00  0.00000000E+00
  0.00000000E+00  0.00000000E+00  0.00000000E+00
  0.00000000E+00  0.00000000E+00  0.00000000E+00
  0.00000000E+00  0.00000000E+00  0.00000000E+00
  0.00000000E+00  0.00000000E+00  0.00000000E+00
  0.00000000E+00  0.00000000E+00  0.00000000E+00
  0.00000000E+00  0.00000000E+00  0.00000000E+00
  0.00000000E+00  0.00000000E+00  0.00000000E+00
  0.00000000E+00  0.00000000E+00  0.00000000E+00
  0.00000000E+00  0.00000000E+00  0.00000000E+00
  0.00000000E+00  0.00000000E+00  0.00000000E+00
  0.00000000E+00  0.00000000E+00  0.00000000E+00
  0.00000000E+00  0.00000000E+00  0.00000000E+00
  0.00000000E+00  0.00000000E+00  0.00000000E+00
  0.00000000E+00  0.00000000E+00  0.00000000E+00
  0.00000000E+00  0.00000000E+00  0.00000000E+00
  0.00000000E+00  0.00000000E+00  0.00000000E+00
  0.00000000E+00  0.00000000E+00  0.00000000E+00
  0.00000000E+00  0.00000000E+00  0.00000000E+00
  0.00000000E+00  0.00000000E+00  0.00000000E+00
  0.00000000E+00  0.00000000E+00  0.00000000E+00
  0.00000000E+00  0.00000000E+00  0.00000000E+00
  0.00000000E+00  0.00000000E+00  0.00000000E+00
  0.00000000E+00  0.00000000E+00  0.00000000E+00
  0.00000000E+00  0.00000000E+00  0.00000000E+00
  0.00000000E+00  0.00000000E+00  0.00000000E+00
  0.00000000E+00  0.00000000E+00  0.00000000E+00
  0.00000000E+00  0.00000000E+00  0.00000000E+00
  0.00000000E+00  0.00000000E+00  0.00000000E+00
  0.00000000E+00  0.00000000E+00  0.00000000E+00
  0.00000000E+00  0.00000000E+00  0.00000000E+00
  0.00000000E+00  0.00000000E+00  0.00000000E+00
  0.00000000E+00  0.00000000E+00  0.00000000E+00
  0.00000000E+00  0.00000000E+00  0.00000000E+00
  0.00000000E+00  0.00000000E+00  0.00000000E+00
  0.00000000E+00  0.00000000E+00  0.00000000E+00
  0.00000000E+00  0.00000000E+00  0.00000000E+00
  0.00000000E+00  0.00000000E+00  0.00000000E+00
  0.00000000E+00  0.00000000E+00  0.00000000E+00
  0.00000000E+00  0.00000000E+00  0.00000000E+00
  0.00000000E+00  0.00000000E+00  0.00000000E+00
  0.00000000E+00  0.00000000E+00  0.00000000E+00
  0.00000000E+00  0.00000000E+00  0.00000000E+00
  0.00000000E+00  0.00000000E+00  0.00000000E+00
  0.00000000E+00  0.00000000E+00  0.00000000E+00
  0.00000000E+00  0.00000000E+00  0.00000000E+00
  0.00000000E+00  0.00000000E+00  0.00000000E+00
  0.00000000E+00  0.00000000E+00  0.00000000E+00
  0.00000000E+00  0.00000000E+00  0.00000000E+00
  0.00000000E+00  0.00000000E+00  0.00000000E+00
  0.00000000E+00  0.00000000E+00  0.00000000E+00
  0.00000000E+00  0.00000000E+00  0.00000000E+00
  0.00000000E+00  0.00000000E+00  0.00000000E+00
  0.00000000E+00  0.00000000E+00  0.00000000E+00
  0.00000000E+00  0.00000000E+00  0.00000000E+00
  0.00000000E+00  0.00000000E+00  0.00000000E+00
  0.00000000E+00  0.00000000E+00  0.00000000E+00
  0.00000000E+00  0.00000000E+00  0.00000000E+00
  0.00000000E+00  0.00000000E+00  0.00000000E+00
  0.00000000E+00  0.00000000E+00  0.00000000E+00
  0.00000000E+00  0.00000000E+00  0.00000000E+00
  0.00000000E+00  0.00000000E+00  0.00000000E+00
  0.00000000E+00  0.00000000E+00  0.00000000E+00
  0.00000000E+00  0.00000000E+00  0.00000000E+00
  0.00000000E+00  0.00000000E+00  0.00000000E+00
  0.00000000E+00  0.00000000E+00  0.00000000E+00
  0.00000000E+00  0.00000000E+00  0.00000000E+00
  0.00000000E+00  0.00000000E+00  0.00000000E+00
  0.00000000E+00  0.00000000E+00  0.00000000E+00
