comment                                 
   1.00000000000000     
    11.6672250000000002    0.0000000000000000    0.0000000000000000
    -5.8336125000000001   10.1041132500000010    0.0000000000000000
     0.0000002500000000    0.0000002500000000   26.1140000000000008
   Ce   H    O 
    36     1    72
Selective dynamics
Direct
  0.2134589482842558  0.0934381006568614  0.0304000000000002   F   F   F
  0.5467922816175914  0.0934381006568614  0.0304000000000002   F   F   F
  0.8801256149509200  0.0934381006568614  0.0304000000000002   F   F   F
  0.2134589482842557  0.4267714339901971  0.0304000000000002   F   F   F
  0.2134589482842479  0.7601047673235329  0.0304000000000002   F   F   F
  0.5467922816175903  0.7601047673235329  0.0304000000000002   F   F   F
  0.5467922816175914  0.4267714339901971  0.0304000000000002   F   F   F
  0.8801256149509198  0.4267714339901971  0.0304000000000002   F   F   F
  0.8801256149509155  0.7601047673235329  0.0304000000000002   F   F   F
  0.9912322939473627  0.3156647763495641  0.1520000000000010   F   F   F
  0.9912322939473627  0.6489981096828927  0.1520000000000010   F   F   F
  0.3245656272806983  0.3156647763495641  0.1520000000000010   F   F   F
  0.3245656272806983  0.6489981096828927  0.1520000000000010   F   F   F
  0.6578989606140341  0.6489981096828927  0.1520000000000010   F   F   F
  0.6578989606140341  0.3156647763495641  0.1520000000000010   F   F   F
  0.9912322939473626  0.9823314430162285  0.1520000000000010   F   F   F
  0.3245656272807004  0.9823314430162285  0.1520000000000010   F   F   F
  0.6578989606140341  0.9823314430162285  0.1520000000000010   F   F   F
  0.1017526874886752  0.5372288361829430  0.2726585787879015   T   T   T
  0.1015326718435700  0.8710079224086955  0.2737105341982856   T   T   T
  0.7696527759897184  0.5390810494300550  0.2730696625649642   T   T   T
  0.7696112537893063  0.8709910912409975  0.2737129042298235   T   T   T
  0.4357963385273886  0.8715159850037550  0.2731534331854995   T   T   T
  0.4356421788166437  0.5372521442154340  0.2726551465198794   T   T   T
  0.1018043505220623  0.2034573244204811  0.2729166803058762   T   T   T
  0.7684313242419303  0.2049359088995889  0.2721070188288055   T   T   T
  0.4366689073916392  0.2049272472548925  0.2721060570181459   T   T   T
  0.2125601369723872  0.4249317108579613  0.3922275380794278   T   T   T
  0.2132810518445418  0.7580201276702042  0.3933074970282304   T   T   T
  0.5448699335662005  0.7580567814093586  0.3932489438091488   T   T   T
  0.5468127464792694  0.4273630916611368  0.3929993766533745   T   T   T
  0.8808861800593676  0.4273962767716484  0.3930488093614125   T   T   T
  0.8767737688600841  0.7533334444246967  0.3958320154241788   T   T   T
  0.2241892810501802  0.0975870053188633  0.3919566929297604   T   T   T
  0.5473912730894205  0.0946662689051774  0.3937442068370349   T   T   T
  0.8734755020685615  0.0975578396219096  0.3919485255832968   T   T   T
 -0.0004486087871363 -0.0005754934592483  0.4761940968392137   T   T   T
  0.1023389452018020  0.8712247650670335  0.0000000000000000   F   F   F
  0.1023389452018009  0.2045580984003692  0.0000000000000000   F   F   F
  0.7690056118684651  0.5378914317336978  0.0000000000000000   F   F   F
  0.4356722785351366  0.5378914317336978  0.0000000000000000   F   F   F
  0.4356722785351366  0.8712247650670335  0.0000000000000000   F   F   F
  0.7690056118684652  0.8712247650670335  0.0000000000000000   F   F   F
  0.4356722785351366  0.2045580984003692  0.0000000000000000   F   F   F
  0.7690056118684651  0.2045580984003692  0.0000000000000000   F   F   F
  0.1023389452018009  0.5378914317336978  0.0000000000000000   F   F   F
  0.9912322846999991  0.3156647695800387  0.0608000000000004   F   F   F
  0.9912322847000183  0.6489981029133745  0.0608000000000004   F   F   F
  0.6578989513666967  0.3156647695800387  0.0608000000000004   F   F   F
  0.3245656180333682  0.3156647695800387  0.0608000000000004   F   F   F
  0.3245656180333710  0.6489981029133745  0.0608000000000004   F   F   F
  0.6578989513666968  0.6489981029133745  0.0608000000000004   F   F   F
  0.9912322847000324  0.9823314362467100  0.0608000000000004   F   F   F
  0.6578989513666966  0.9823314362467100  0.0608000000000004   F   F   F
  0.3245656180333611  0.9823314362467100  0.0608000000000004   F   F   F
  0.5467922908649286  0.7601047740930367  0.1216000000000008   F   F   F
  0.8801256241982571  0.7601047740930367  0.1216000000000008   F   F   F
  0.8801256241982571  0.4267714407597154  0.1216000000000008   F   F   F
  0.5467922908649356  0.4267714407597154  0.1216000000000008   F   F   F
  0.5467922908649286  0.0934381074263868  0.1216000000000008   F   F   F
  0.8801256241982657  0.0934381074263868  0.1216000000000008   F   F   F
  0.2134589575315929  0.0934381074263868  0.1216000000000008   F   F   F
  0.2134589575315940  0.7601047740930367  0.1216000000000008   F   F   F
  0.2134589575315929  0.4267714407597154  0.1216000000000008   F   F   F
  0.1023389636964751  0.5378914452727415  0.1824000000000012   F   F   F
  0.1023389636964751  0.8712247786060701  0.1824000000000012   F   F   F
  0.4356722970298108  0.5378914452727415  0.1824000000000012   F   F   F
  0.7690056303631537  0.5378914452727415  0.1824000000000012   F   F   F
  0.7690056303631393  0.8712247786060701  0.1824000000000012   F   F   F
  0.4356722970298036  0.8712247786060701  0.1824000000000012   F   F   F
  0.1023389636964751  0.2045581119394058  0.1824000000000012   F   F   F
  0.7690056303631392  0.2045581119394058  0.1824000000000012   F   F   F
  0.4356722970298037  0.2045581119394058  0.1824000000000012   F   F   F
  0.9920683599161456  0.6491023583227097  0.2426432794369268   T   T   T
  0.3249288779566967  0.3158127141625233  0.2422569931504555   T   T   T
  0.6579473190357904  0.3157979267868615  0.2423831703030026   T   T   T
  0.6571377259045277  0.6490399389816810  0.2426322136810025   T   T   T
  0.3245426062119152  0.6489471152193077  0.2432794325929545   T   T   T
  0.9915935043847809  0.9829552649191954  0.2432232609667461   T   T   T
  0.3245437218351289  0.9815764457607927  0.2426760065658131   T   T   T
  0.6571420368756885  0.9815562604807091  0.2426736600023637   T   T   T
  0.9910840370595109  0.3157693734338273  0.2422086295215212   T   T   T
  0.2120525950322273  0.7603800357868450  0.3044888476841465   T   T   T
  0.2109302810471315  0.4217946161837239  0.3036147022318276   T   T   T
  0.8795214494004222  0.7590284593098764  0.3025902854862604   T   T   T
  0.5483674597928383  0.7603382983089235  0.3044647532821638   T   T   T
  0.5468290498891386  0.4272367852316853  0.3033556870366694   T   T   T
  0.8806676648896562  0.4270659415701567  0.3033150867842541   T   T   T
  0.2169665004770112  0.0956496823286357  0.3030802915805876   T   T   T
  0.8789139500212798  0.0957329129348338  0.3030543425268093   T   T   T
  0.5466223586077652  0.0931156554018254  0.3035110752665309   T   T   T
  0.1042562260792439  0.5354205863387496  0.3614579704972768   T   T   T
  0.1057950660555192  0.8794110284749457  0.3642859666402323   T   T   T
  0.7665088155934117  0.5321490649231038  0.3630499550133592   T   T   T
  0.4312477842280695  0.5353679617910602  0.3614412690245075   T   T   T
  0.4353145066109268  0.8705095220975232  0.3629926888274947   T   T   T
  0.7736161770193011  0.8795476686215385  0.3642033331745749   T   T   T
  0.0972146308219365  0.1943187824813588  0.3635140518555118   T   T   T
  0.4379776513911728  0.2058764119707520  0.3620805869274550   T   T   T
  0.7680040462670029  0.2058795209817293  0.3621224432920138   T   T   T
  0.9898325632353164  0.3139456440036265  0.4225028480234637   T   T   T
  1.0000837370111577  0.6415543352878160  0.4242500089793569   T   T   T
  0.6568493610942803  0.3137554564203481  0.4240911136529612   T   T   T
  0.3242914698039232  0.3138962231811350  0.4224703888672446   T   T   T
  0.3236613332043005  0.6469909051917704  0.4229171655147363   T   T   T
  0.6418980602661911  0.6414620308440790  0.4240137662961760   T   T   T
  0.9959075011622339  0.9921743626970083  0.4391504256425845   T   T   T
  0.6581141110568866  0.9867783204544172  0.4239794242112304   T   T   T
  0.3287317233822182  0.9868307658215898  0.4239671645901701   T   T   T
 
  0.00000000E+00  0.00000000E+00  0.00000000E+00
  0.00000000E+00  0.00000000E+00  0.00000000E+00
  0.00000000E+00  0.00000000E+00  0.00000000E+00
  0.00000000E+00  0.00000000E+00  0.00000000E+00
  0.00000000E+00  0.00000000E+00  0.00000000E+00
  0.00000000E+00  0.00000000E+00  0.00000000E+00
  0.00000000E+00  0.00000000E+00  0.00000000E+00
  0.00000000E+00  0.00000000E+00  0.00000000E+00
  0.00000000E+00  0.00000000E+00  0.00000000E+00
  0.00000000E+00  0.00000000E+00  0.00000000E+00
  0.00000000E+00  0.00000000E+00  0.00000000E+00
  0.00000000E+00  0.00000000E+00  0.00000000E+00
  0.00000000E+00  0.00000000E+00  0.00000000E+00
  0.00000000E+00  0.00000000E+00  0.00000000E+00
  0.00000000E+00  0.00000000E+00  0.00000000E+00
  0.00000000E+00  0.00000000E+00  0.00000000E+00
  0.00000000E+00  0.00000000E+00  0.00000000E+00
  0.00000000E+00  0.00000000E+00  0.00000000E+00
  0.00000000E+00  0.00000000E+00  0.00000000E+00
  0.00000000E+00  0.00000000E+00  0.00000000E+00
  0.00000000E+00  0.00000000E+00  0.00000000E+00
  0.00000000E+00  0.00000000E+00  0.00000000E+00
  0.00000000E+00  0.00000000E+00  0.00000000E+00
  0.00000000E+00  0.00000000E+00  0.00000000E+00
  0.00000000E+00  0.00000000E+00  0.00000000E+00
  0.00000000E+00  0.00000000E+00  0.00000000E+00
  0.00000000E+00  0.00000000E+00  0.00000000E+00
  0.00000000E+00  0.00000000E+00  0.00000000E+00
  0.00000000E+00  0.00000000E+00  0.00000000E+00
  0.00000000E+00  0.00000000E+00  0.00000000E+00
  0.00000000E+00  0.00000000E+00  0.00000000E+00
  0.00000000E+00  0.00000000E+00  0.00000000E+00
  0.00000000E+00  0.00000000E+00  0.00000000E+00
  0.00000000E+00  0.00000000E+00  0.00000000E+00
  0.00000000E+00  0.00000000E+00  0.00000000E+00
  0.00000000E+00  0.00000000E+00  0.00000000E+00
  0.00000000E+00  0.00000000E+00  0.00000000E+00
  0.00000000E+00  0.00000000E+00  0.00000000E+00
  0.00000000E+00  0.00000000E+00  0.00000000E+00
  0.00000000E+00  0.00000000E+00  0.00000000E+00
  0.00000000E+00  0.00000000E+00  0.00000000E+00
  0.00000000E+00  0.00000000E+00  0.00000000E+00
  0.00000000E+00  0.00000000E+00  0.00000000E+00
  0.00000000E+00  0.00000000E+00  0.00000000E+00
  0.00000000E+00  0.00000000E+00  0.00000000E+00
  0.00000000E+00  0.00000000E+00  0.00000000E+00
  0.00000000E+00  0.00000000E+00  0.00000000E+00
  0.00000000E+00  0.00000000E+00  0.00000000E+00
  0.00000000E+00  0.00000000E+00  0.00000000E+00
  0.00000000E+00  0.00000000E+00  0.00000000E+00
  0.00000000E+00  0.00000000E+00  0.00000000E+00
  0.00000000E+00  0.00000000E+00  0.00000000E+00
  0.00000000E+00  0.00000000E+00  0.00000000E+00
  0.00000000E+00  0.00000000E+00  0.00000000E+00
  0.00000000E+00  0.00000000E+00  0.00000000E+00
  0.00000000E+00  0.00000000E+00  0.00000000E+00
  0.00000000E+00  0.00000000E+00  0.00000000E+00
  0.00000000E+00  0.00000000E+00  0.00000000E+00
  0.00000000E+00  0.00000000E+00  0.00000000E+00
  0.00000000E+00  0.00000000E+00  0.00000000E+00
  0.00000000E+00  0.00000000E+00  0.00000000E+00
  0.00000000E+00  0.00000000E+00  0.00000000E+00
  0.00000000E+00  0.00000000E+00  0.00000000E+00
  0.00000000E+00  0.00000000E+00  0.00000000E+00
  0.00000000E+00  0.00000000E+00  0.00000000E+00
  0.00000000E+00  0.00000000E+00  0.00000000E+00
  0.00000000E+00  0.00000000E+00  0.00000000E+00
  0.00000000E+00  0.00000000E+00  0.00000000E+00
  0.00000000E+00  0.00000000E+00  0.00000000E+00
  0.00000000E+00  0.00000000E+00  0.00000000E+00
  0.00000000E+00  0.00000000E+00  0.00000000E+00
  0.00000000E+00  0.00000000E+00  0.00000000E+00
  0.00000000E+00  0.00000000E+00  0.00000000E+00
  0.00000000E+00  0.00000000E+00  0.00000000E+00
  0.00000000E+00  0.00000000E+00  0.00000000E+00
  0.00000000E+00  0.00000000E+00  0.00000000E+00
  0.00000000E+00  0.00000000E+00  0.00000000E+00
  0.00000000E+00  0.00000000E+00  0.00000000E+00
  0.00000000E+00  0.00000000E+00  0.00000000E+00
  0.00000000E+00  0.00000000E+00  0.00000000E+00
  0.00000000E+00  0.00000000E+00  0.00000000E+00
  0.00000000E+00  0.00000000E+00  0.00000000E+00
  0.00000000E+00  0.00000000E+00  0.00000000E+00
  0.00000000E+00  0.00000000E+00  0.00000000E+00
  0.00000000E+00  0.00000000E+00  0.00000000E+00
  0.00000000E+00  0.00000000E+00  0.00000000E+00
  0.00000000E+00  0.00000000E+00  0.00000000E+00
  0.00000000E+00  0.00000000E+00  0.00000000E+00
  0.00000000E+00  0.00000000E+00  0.00000000E+00
  0.00000000E+00  0.00000000E+00  0.00000000E+00
  0.00000000E+00  0.00000000E+00  0.00000000E+00
  0.00000000E+00  0.00000000E+00  0.00000000E+00
  0.00000000E+00  0.00000000E+00  0.00000000E+00
  0.00000000E+00  0.00000000E+00  0.00000000E+00
  0.00000000E+00  0.00000000E+00  0.00000000E+00
  0.00000000E+00  0.00000000E+00  0.00000000E+00
  0.00000000E+00  0.00000000E+00  0.00000000E+00
  0.00000000E+00  0.00000000E+00  0.00000000E+00
  0.00000000E+00  0.00000000E+00  0.00000000E+00
  0.00000000E+00  0.00000000E+00  0.00000000E+00
  0.00000000E+00  0.00000000E+00  0.00000000E+00
  0.00000000E+00  0.00000000E+00  0.00000000E+00
  0.00000000E+00  0.00000000E+00  0.00000000E+00
  0.00000000E+00  0.00000000E+00  0.00000000E+00
  0.00000000E+00  0.00000000E+00  0.00000000E+00
  0.00000000E+00  0.00000000E+00  0.00000000E+00
  0.00000000E+00  0.00000000E+00  0.00000000E+00
  0.00000000E+00  0.00000000E+00  0.00000000E+00
  0.00000000E+00  0.00000000E+00  0.00000000E+00
