cof4n                                   
   1.00000000000000     
     7.7782000000000000    0.0000000000000000    0.0000000000000000
    -3.8890500000000001    6.7360319999999998    0.0000000000000000
     0.0000010000000000    0.0000010000000000   26.1140000000000008
   C    Ce   H    O 
     1    16     1    33
Selective dynamics
Direct
  0.9974428264362274  0.0213554169061965  0.5218277854408129   T   T   T
  0.3333400000000211  0.6666600000000003  0.0304000000000002   F   F   F
  0.3333399999999997  0.1666600000000003  0.0304000000000002   F   F   F
  0.8333399999999997  0.1666600000000003  0.0304000000000002   F   F   F
  0.8333399999999997  0.6666600000000003  0.0304000000000002   F   F   F
  0.0000000000000000  0.0000000000000000  0.1520000000000010   F   F   F
  0.0000000000000071  0.5000000000000000  0.1520000000000010   F   F   F
  0.5000000000000000  0.5000000000000000  0.1520000000000010   F   F   F
  0.5000000000000000  0.0000000000000000  0.1520000000000010   F   F   F
  0.6670729456592994  0.3330944920194270  0.2717278791237945   T   T   T
  0.1660838449114195  0.8340320874209937  0.2732618052033615   T   T   T
  0.6669489982304384  0.8327525213167277  0.2750137047131460   T   T   T
  0.1673332050025778  0.3332478292499630  0.2750589941555646   T   T   T
  0.8255846046241615  0.1736117198107010  0.3949875371048250   T   T   T
  0.3252960359716184  0.6740665342527024  0.3971864104818650   T   T   T
  0.3477011871369982  0.1666813131651637  0.3938904112289023   T   T   T
  0.8332097041636288  0.6520829931830079  0.3938507418256521   T   T   T
  0.4961543056252182  0.5055223055656626  0.4829967646397932   T   T   T
  0.6666600000000003  0.8333399999999997  0.0000000000000000   F   F   F
  0.6666600000000003  0.3333399999999997  0.0000000000000000   F   F   F
  0.1666600000000003  0.3333399999999997  0.0000000000000000   F   F   F
  0.1666600000000003  0.8333399999999997  0.0000000000000000   F   F   F
  0.5000000000000000  0.0000000000000000  0.0608000000000004   F   F   F
  0.0000000000000000  0.0000000000000000  0.0608000000000004   F   F   F
  0.0000000000000071  0.5000000000000000  0.0608000000000004   F   F   F
  0.5000000000000000  0.5000000000000000  0.0608000000000004   F   F   F
  0.8333399999999997  0.1666600000000003  0.1216000000000008   F   F   F
  0.3333399999999997  0.1666600000000003  0.1216000000000008   F   F   F
  0.3333399999999997  0.6666600000000003  0.1216000000000008   F   F   F
  0.8333399999999997  0.6666600000000003  0.1216000000000008   F   F   F
  0.1666600000000003  0.3333399999999997  0.1824000000000012   F   F   F
  0.6666600000000074  0.3333399999999997  0.1824000000000012   F   F   F
  0.6666600000000003  0.8333399999999997  0.1824000000000012   F   F   F
  0.1666600000000003  0.8333399999999997  0.1824000000000012   F   F   F
  0.4976751211616488  0.5024148158450075  0.2432913249420992   T   T   T
  0.4999254213109765  0.9969232105709409  0.2427224798775427   T   T   T
  0.0032779081432750  0.5001259754003087  0.2427458167540948   T   T   T
  0.9993149310265821  0.0007320762938932  0.2436512807489493   T   T   T
  0.3370638255690963  0.1673777464114607  0.3016763257599280   T   T   T
  0.8326868261134521  0.6626827901099546  0.3016041496486181   T   T   T
  0.8322628798354827  0.1674702476109289  0.3035298141641718   T   T   T
  0.3312388917810551  0.6693665323893967  0.3070247591589990   T   T   T
  0.1599471259719607  0.8398677482336083  0.3657092542288680   T   T   T
  0.6654922371124385  0.3350130428206555  0.3641867920544115   T   T   T
  0.1722492381001572  0.3305223755871509  0.3678989650873845   T   T   T
  0.6703232196085978  0.8273688766024776  0.3679530775839694   T   T   T
  0.0215137801081511  0.5134224654405131  0.4319566371359329   T   T   T
  0.4869985071440510  0.9784551521588156  0.4318777000872842   T   T   T
  0.4968649677496657  0.5022258641870820  0.4458175877125470   T   T   T
  0.0011162284000861  0.0055343654017506  0.4767540427263697   T   T   T
  0.9935447376230897  0.0367906284878643  0.5662105244933642   T   T   T
 
  0.00000000E+00  0.00000000E+00  0.00000000E+00
  0.00000000E+00  0.00000000E+00  0.00000000E+00
  0.00000000E+00  0.00000000E+00  0.00000000E+00
  0.00000000E+00  0.00000000E+00  0.00000000E+00
  0.00000000E+00  0.00000000E+00  0.00000000E+00
  0.00000000E+00  0.00000000E+00  0.00000000E+00
  0.00000000E+00  0.00000000E+00  0.00000000E+00
  0.00000000E+00  0.00000000E+00  0.00000000E+00
  0.00000000E+00  0.00000000E+00  0.00000000E+00
  0.00000000E+00  0.00000000E+00  0.00000000E+00
  0.00000000E+00  0.00000000E+00  0.00000000E+00
  0.00000000E+00  0.00000000E+00  0.00000000E+00
  0.00000000E+00  0.00000000E+00  0.00000000E+00
  0.00000000E+00  0.00000000E+00  0.00000000E+00
  0.00000000E+00  0.00000000E+00  0.00000000E+00
  0.00000000E+00  0.00000000E+00  0.00000000E+00
  0.00000000E+00  0.00000000E+00  0.00000000E+00
  0.00000000E+00  0.00000000E+00  0.00000000E+00
  0.00000000E+00  0.00000000E+00  0.00000000E+00
  0.00000000E+00  0.00000000E+00  0.00000000E+00
  0.00000000E+00  0.00000000E+00  0.00000000E+00
  0.00000000E+00  0.00000000E+00  0.00000000E+00
  0.00000000E+00  0.00000000E+00  0.00000000E+00
  0.00000000E+00  0.00000000E+00  0.00000000E+00
  0.00000000E+00  0.00000000E+00  0.00000000E+00
  0.00000000E+00  0.00000000E+00  0.00000000E+00
  0.00000000E+00  0.00000000E+00  0.00000000E+00
  0.00000000E+00  0.00000000E+00  0.00000000E+00
  0.00000000E+00  0.00000000E+00  0.00000000E+00
  0.00000000E+00  0.00000000E+00  0.00000000E+00
  0.00000000E+00  0.00000000E+00  0.00000000E+00
  0.00000000E+00  0.00000000E+00  0.00000000E+00
  0.00000000E+00  0.00000000E+00  0.00000000E+00
  0.00000000E+00  0.00000000E+00  0.00000000E+00
  0.00000000E+00  0.00000000E+00  0.00000000E+00
  0.00000000E+00  0.00000000E+00  0.00000000E+00
  0.00000000E+00  0.00000000E+00  0.00000000E+00
  0.00000000E+00  0.00000000E+00  0.00000000E+00
  0.00000000E+00  0.00000000E+00  0.00000000E+00
  0.00000000E+00  0.00000000E+00  0.00000000E+00
  0.00000000E+00  0.00000000E+00  0.00000000E+00
  0.00000000E+00  0.00000000E+00  0.00000000E+00
  0.00000000E+00  0.00000000E+00  0.00000000E+00
  0.00000000E+00  0.00000000E+00  0.00000000E+00
  0.00000000E+00  0.00000000E+00  0.00000000E+00
  0.00000000E+00  0.00000000E+00  0.00000000E+00
  0.00000000E+00  0.00000000E+00  0.00000000E+00
  0.00000000E+00  0.00000000E+00  0.00000000E+00
  0.00000000E+00  0.00000000E+00  0.00000000E+00
  0.00000000E+00  0.00000000E+00  0.00000000E+00
  0.00000000E+00  0.00000000E+00  0.00000000E+00
