9n                                      
   1.00000000000000     
    11.6672250000000002    0.0000000000000000    0.0000000000000000
    -5.8336125000000001   10.1041132500000010    0.0000000000000000
     0.0000002500000000    0.0000002500000000   26.1140000000000008
   C    Ce   H    O 
     1    36     1    73
Selective dynamics
Direct
  0.2789750226529144  0.3819105536862503  0.4799848684205237   T   T   T
  0.2208255552067371  0.1103183079369927  0.0304000000000002   F   F   F
  0.5541588885400728  0.1103183079369927  0.0304000000000002   F   F   F
  0.8874922218732384  0.1103183079369927  0.0304000000000002   F   F   F
  0.2208255552067358  0.4436516412703282  0.0304000000000002   F   F   F
  0.2208255552067323  0.7769849746036647  0.0304000000000002   F   F   F
  0.5541588885400728  0.7769849746036647  0.0304000000000002   F   F   F
  0.5541588885400728  0.4436516412703282  0.0304000000000002   F   F   F
  0.8874922218734007  0.4436516412703282  0.0304000000000002   F   F   F
  0.8874922218733992  0.7769849746036647  0.0304000000000002   F   F   F
  0.9985989008698505  0.6658783169630240  0.1520000000000010   F   F   F
  0.9985989008698505  0.3325449836296954  0.1520000000000010   F   F   F
  0.3319322342031796  0.3325449836296954  0.1520000000000010   F   F   F
  0.3319322342031796  0.6658783169630240  0.1520000000000010   F   F   F
  0.6652655675365158  0.6658783169630240  0.1520000000000010   F   F   F
  0.6652655675365139  0.3325449836296954  0.1520000000000010   F   F   F
  0.9985989008702703  0.9992116502963597  0.1520000000000010   F   F   F
  0.3319322342031796  0.9992116502963597  0.1520000000000010   F   F   F
  0.6652655675365158  0.9992116502963597  0.1520000000000010   F   F   F
  0.7752316610663342  0.5539170894593505  0.2725007666919130   T   T   T
  0.1093348951626943  0.5545914922275218  0.2727980481394962   T   T   T
  0.7765701207718534  0.2220078560146347  0.2716920212229410   T   T   T
  0.7773273384912118  0.8882226682116566  0.2727789802946231   T   T   T
  0.4432996619627625  0.8885834508315167  0.2729509179351267   T   T   T
  0.1096826067379422  0.8879722740570344  0.2725483775132839   T   T   T
  0.4444643281081445  0.2229266563350167  0.2727107941827945   T   T   T
  0.1103431209178601  0.2216915871324633  0.2731649853289392   T   T   T
  0.4430496893898672  0.5536190573720496  0.2740509142948073   T   T   T
  0.2294193847783665  0.1087722205525713  0.3915497844222429   T   T   T
  0.8842905694252864  0.1155427703501207  0.3909639962775096   T   T   T
  0.8832471977265851  0.7680291077975770  0.3920771929790018   T   T   T
  0.2210703631291852  0.7772307957006384  0.3934652595728032   T   T   T
  0.8867307012069892  0.4424416611494621  0.3929265410776487   T   T   T
  0.5569085947926410  0.1112089115892460  0.3927541808532357   T   T   T
  0.5550435820763117  0.7781907884149273  0.3931929734905117   T   T   T
  0.2178671744871725  0.4472893502973223  0.3941527106838545   T   T   T
  0.5586853037467430  0.4448212077600480  0.3963928234808623   T   T   T
  1.0003836979969147  1.0006376256543783  0.4733077574612307   T   T   T
  0.1097055521242822  0.8881049723471648  0.0000000000000000   F   F   F
  0.1097055521242823  0.2214383056805005  0.0000000000000000   F   F   F
  0.7763722187909465  0.5547716390138291  0.0000000000000000   F   F   F
  0.4430388854576179  0.5547716390138291  0.0000000000000000   F   F   F
  0.4430388854576179  0.8881049723471648  0.0000000000000000   F   F   F
  0.7763722187909460  0.8881049723471648  0.0000000000000000   F   F   F
  0.4430388854576179  0.2214383056805005  0.0000000000000000   F   F   F
  0.7763722187909465  0.2214383056805005  0.0000000000000000   F   F   F
  0.1097055521242823  0.5547716390138291  0.0000000000000000   F   F   F
  0.9985988916224880  0.3325449768601698  0.0608000000000004   F   F   F
  0.9985988916225139  0.6658783101935057  0.0608000000000004   F   F   F
  0.6652655582891782  0.3325449768601698  0.0608000000000004   F   F   F
  0.3319322249558430  0.3325449768601698  0.0608000000000004   F   F   F
  0.3319322249558425  0.6658783101935057  0.0608000000000004   F   F   F
  0.6652655582891782  0.6658783101935057  0.0608000000000004   F   F   F
  0.9985988916225139  0.9992116435268414  0.0608000000000004   F   F   F
  0.3319322249558438  0.9992116435268414  0.0608000000000004   F   F   F
  0.6652655582891782  0.9992116435268414  0.0608000000000004   F   F   F
  0.5541588977874103  0.1103183147065182  0.1216000000000008   F   F   F
  0.8874922311205827  0.1103183147065182  0.1216000000000008   F   F   F
  0.2208255644540743  0.1103183147065182  0.1216000000000008   F   F   F
  0.2208255644540725  0.7769849813731819  0.1216000000000008   F   F   F
  0.2208255644540743  0.4436516480398467  0.1216000000000008   F   F   F
  0.5541588977874100  0.7769849813731819  0.1216000000000008   F   F   F
  0.8874922311207381  0.7769849813731819  0.1216000000000008   F   F   F
  0.8874922311207379  0.4436516480398467  0.1216000000000008   F   F   F
  0.5541588977874099  0.4436516480398467  0.1216000000000008   F   F   F
  0.1097055706189564  0.5547716525528728  0.1824000000000012   F   F   F
  0.1097055706189576  0.8881049858862018  0.1824000000000012   F   F   F
  0.4430389039522922  0.5547716525528728  0.1824000000000012   F   F   F
  0.7763722372856279  0.5547716525528728  0.1824000000000012   F   F   F
  0.7763722372856212  0.8881049858862018  0.1824000000000012   F   F   F
  0.4430389039522925  0.8881049858862018  0.1824000000000012   F   F   F
  0.1097055706189557  0.2214383192195360  0.1824000000000012   F   F   F
  0.7763722372856211  0.2214383192195360  0.1824000000000012   F   F   F
  0.4430389039522937  0.2214383192195360  0.1824000000000012   F   F   F
  0.6656304229812819  0.3325869712141945  0.2421056845060786   T   T   T
  0.9994483388161467  0.6662271846951376  0.2424987705131050   T   T   T
  0.9992796056445814  0.3333841436957828  0.2421205134043005   T   T   T
  0.6650181864254245  0.6668158913045144  0.2425731962321851   T   T   T
  0.3319413201685481  0.9983723916297726  0.2425235465122071   T   T   T
  0.3324856564029155  0.6664901182136407  0.2435158379935825   T   T   T
  0.6646424017096795  0.9978992491930265  0.2426530193568175   T   T   T
  0.9989819372206346  0.9989210752500617  0.2428913822983280   T   T   T
  0.3313485897880228  0.3327731320636139  0.2428492978215535   T   T   T
  0.5547472363804705  0.4443908444008546  0.3022939271032625   T   T   T
  0.2230008173298471  0.1104761906563356  0.3028762068869662   T   T   T
  0.8885470183425916  0.1128534284814341  0.3023721309599434   T   T   T
  0.2179744806645667  0.4414721282898554  0.3038509953487299   T   T   T
  0.8875116436119409  0.4431452306240828  0.3029649628037397   T   T   T
  0.8865720404169151  0.7747771131663028  0.3030330549644544   T   T   T
  0.2198720188141495  0.7784560858611178  0.3045268578793008   T   T   T
  0.5547965145176873  0.1112738098913240  0.3029685690853627   T   T   T
  0.5569926927194141  0.7770610212434387  0.3050657525170607   T   T   T
  0.7764789181785322  0.2199415541640134  0.3605253468257665   T   T   T
  0.7885138794425903  0.8966635829775453  0.3625321883487346   T   T   T
  0.4451192714104930  0.8902667932376581  0.3621097795876739   T   T   T
  0.7808798532619476  0.5553297641976377  0.3624546338688776   T   T   T
  0.1085765802508761  0.5555651117399638  0.3629110203114204   T   T   T
  0.1054238629947034  0.8922544904227026  0.3634822661644347   T   T   T
  0.4419859663233982  0.2183460802373562  0.3628017638778847   T   T   T
  0.4367229929248572  0.5529663609731863  0.3646290386597488   T   T   T
  0.1077375466853216  0.2135488841094371  0.3639359583848361   T   T   T
  0.6677973065349951  1.0010843855757783  0.4223334406183166   T   T   T
 -0.0008017996730414 -0.0016120439547613  0.4360358588554390   T   T   T
  0.9936419950090247  0.3299378500174022  0.4216202070679071   T   T   T
  0.3311892201723444 -0.0026489175896777  0.4230706921742965   T   T   T
 -0.0013886317500033  0.6675070995199145  0.4235445374626701   T   T   T
  0.3317764030569296  0.6729323854448126  0.4225094710264395   T   T   T
  0.6745032707386044  0.6809538651468144  0.4235295789612393   T   T   T
  0.6744423419440968  0.3244028760987284  0.4242084796722702   T   T   T
  0.3228803363969450  0.3155867884406066  0.4318116766644172   T   T   T
  0.2999834876945229  0.3568136578060577  0.5216242421196935   T   T   T
 
  0.00000000E+00  0.00000000E+00  0.00000000E+00
  0.00000000E+00  0.00000000E+00  0.00000000E+00
  0.00000000E+00  0.00000000E+00  0.00000000E+00
  0.00000000E+00  0.00000000E+00  0.00000000E+00
  0.00000000E+00  0.00000000E+00  0.00000000E+00
  0.00000000E+00  0.00000000E+00  0.00000000E+00
  0.00000000E+00  0.00000000E+00  0.00000000E+00
  0.00000000E+00  0.00000000E+00  0.00000000E+00
  0.00000000E+00  0.00000000E+00  0.00000000E+00
  0.00000000E+00  0.00000000E+00  0.00000000E+00
  0.00000000E+00  0.00000000E+00  0.00000000E+00
  0.00000000E+00  0.00000000E+00  0.00000000E+00
  0.00000000E+00  0.00000000E+00  0.00000000E+00
  0.00000000E+00  0.00000000E+00  0.00000000E+00
  0.00000000E+00  0.00000000E+00  0.00000000E+00
  0.00000000E+00  0.00000000E+00  0.00000000E+00
  0.00000000E+00  0.00000000E+00  0.00000000E+00
  0.00000000E+00  0.00000000E+00  0.00000000E+00
  0.00000000E+00  0.00000000E+00  0.00000000E+00
  0.00000000E+00  0.00000000E+00  0.00000000E+00
  0.00000000E+00  0.00000000E+00  0.00000000E+00
  0.00000000E+00  0.00000000E+00  0.00000000E+00
  0.00000000E+00  0.00000000E+00  0.00000000E+00
  0.00000000E+00  0.00000000E+00  0.00000000E+00
  0.00000000E+00  0.00000000E+00  0.00000000E+00
  0.00000000E+00  0.00000000E+00  0.00000000E+00
  0.00000000E+00  0.00000000E+00  0.00000000E+00
  0.00000000E+00  0.00000000E+00  0.00000000E+00
  0.00000000E+00  0.00000000E+00  0.00000000E+00
  0.00000000E+00  0.00000000E+00  0.00000000E+00
  0.00000000E+00  0.00000000E+00  0.00000000E+00
  0.00000000E+00  0.00000000E+00  0.00000000E+00
  0.00000000E+00  0.00000000E+00  0.00000000E+00
  0.00000000E+00  0.00000000E+00  0.00000000E+00
  0.00000000E+00  0.00000000E+00  0.00000000E+00
  0.00000000E+00  0.00000000E+00  0.00000000E+00
  0.00000000E+00  0.00000000E+00  0.00000000E+00
  0.00000000E+00  0.00000000E+00  0.00000000E+00
  0.00000000E+00  0.00000000E+00  0.00000000E+00
  0.00000000E+00  0.00000000E+00  0.00000000E+00
  0.00000000E+00  0.00000000E+00  0.00000000E+00
  0.00000000E+00  0.00000000E+00  0.00000000E+00
  0.00000000E+00  0.00000000E+00  0.00000000E+00
  0.00000000E+00  0.00000000E+00  0.00000000E+00
  0.00000000E+00  0.00000000E+00  0.00000000E+00
  0.00000000E+00  0.00000000E+00  0.00000000E+00
  0.00000000E+00  0.00000000E+00  0.00000000E+00
  0.00000000E+00  0.00000000E+00  0.00000000E+00
  0.00000000E+00  0.00000000E+00  0.00000000E+00
  0.00000000E+00  0.00000000E+00  0.00000000E+00
  0.00000000E+00  0.00000000E+00  0.00000000E+00
  0.00000000E+00  0.00000000E+00  0.00000000E+00
  0.00000000E+00  0.00000000E+00  0.00000000E+00
  0.00000000E+00  0.00000000E+00  0.00000000E+00
  0.00000000E+00  0.00000000E+00  0.00000000E+00
  0.00000000E+00  0.00000000E+00  0.00000000E+00
  0.00000000E+00  0.00000000E+00  0.00000000E+00
  0.00000000E+00  0.00000000E+00  0.00000000E+00
  0.00000000E+00  0.00000000E+00  0.00000000E+00
  0.00000000E+00  0.00000000E+00  0.00000000E+00
  0.00000000E+00  0.00000000E+00  0.00000000E+00
  0.00000000E+00  0.00000000E+00  0.00000000E+00
  0.00000000E+00  0.00000000E+00  0.00000000E+00
  0.00000000E+00  0.00000000E+00  0.00000000E+00
  0.00000000E+00  0.00000000E+00  0.00000000E+00
  0.00000000E+00  0.00000000E+00  0.00000000E+00
  0.00000000E+00  0.00000000E+00  0.00000000E+00
  0.00000000E+00  0.00000000E+00  0.00000000E+00
  0.00000000E+00  0.00000000E+00  0.00000000E+00
  0.00000000E+00  0.00000000E+00  0.00000000E+00
  0.00000000E+00  0.00000000E+00  0.00000000E+00
  0.00000000E+00  0.00000000E+00  0.00000000E+00
  0.00000000E+00  0.00000000E+00  0.00000000E+00
  0.00000000E+00  0.00000000E+00  0.00000000E+00
  0.00000000E+00  0.00000000E+00  0.00000000E+00
  0.00000000E+00  0.00000000E+00  0.00000000E+00
  0.00000000E+00  0.00000000E+00  0.00000000E+00
  0.00000000E+00  0.00000000E+00  0.00000000E+00
  0.00000000E+00  0.00000000E+00  0.00000000E+00
  0.00000000E+00  0.00000000E+00  0.00000000E+00
  0.00000000E+00  0.00000000E+00  0.00000000E+00
  0.00000000E+00  0.00000000E+00  0.00000000E+00
  0.00000000E+00  0.00000000E+00  0.00000000E+00
  0.00000000E+00  0.00000000E+00  0.00000000E+00
  0.00000000E+00  0.00000000E+00  0.00000000E+00
  0.00000000E+00  0.00000000E+00  0.00000000E+00
  0.00000000E+00  0.00000000E+00  0.00000000E+00
  0.00000000E+00  0.00000000E+00  0.00000000E+00
  0.00000000E+00  0.00000000E+00  0.00000000E+00
  0.00000000E+00  0.00000000E+00  0.00000000E+00
  0.00000000E+00  0.00000000E+00  0.00000000E+00
  0.00000000E+00  0.00000000E+00  0.00000000E+00
  0.00000000E+00  0.00000000E+00  0.00000000E+00
  0.00000000E+00  0.00000000E+00  0.00000000E+00
  0.00000000E+00  0.00000000E+00  0.00000000E+00
  0.00000000E+00  0.00000000E+00  0.00000000E+00
  0.00000000E+00  0.00000000E+00  0.00000000E+00
  0.00000000E+00  0.00000000E+00  0.00000000E+00
  0.00000000E+00  0.00000000E+00  0.00000000E+00
  0.00000000E+00  0.00000000E+00  0.00000000E+00
  0.00000000E+00  0.00000000E+00  0.00000000E+00
  0.00000000E+00  0.00000000E+00  0.00000000E+00
  0.00000000E+00  0.00000000E+00  0.00000000E+00
  0.00000000E+00  0.00000000E+00  0.00000000E+00
  0.00000000E+00  0.00000000E+00  0.00000000E+00
  0.00000000E+00  0.00000000E+00  0.00000000E+00
  0.00000000E+00  0.00000000E+00  0.00000000E+00
  0.00000000E+00  0.00000000E+00  0.00000000E+00
  0.00000000E+00  0.00000000E+00  0.00000000E+00
  0.00000000E+00  0.00000000E+00  0.00000000E+00
  0.00000000E+00  0.00000000E+00  0.00000000E+00
