cos7n                                   
   1.00000000000000     
    10.2896000000000001    0.0000000000000000    0.0000000000000000
     5.1448000000000000    8.9110549999999993    0.0000000000000000
     0.0000010000000000    0.0000000000000000   26.1140000000000008
   C    Ce   H    O 
     1    28     1    57
Selective dynamics
Direct
  0.7051547146692966  0.6414573585895412  0.5040003808290201   T   T   T
  0.6666700000000033  0.6666700000000034  0.0303999999999986   F   F   F
  0.0952399999999961  0.3809499999999986  0.0303999999999986   F   F   F
  0.2381000000000028  0.9523799999999977  0.0303999999999986   F   F   F
  0.5238099999999903  0.0952399999999969  0.0303999999999986   F   F   F
  0.8095199999999987  0.2381000000000028  0.0303999999999986   F   F   F
  0.9523800000000053  0.8095199999999918  0.0303999999999986   F   F   F
  0.3809499999999985  0.5238099999999974  0.0303999999999986   F   F   F
  0.0000000000000000  0.0000000000000000  0.1519999999999970   F   F   F
  0.5714299999999998  0.2857100000000014  0.1519999999999970   F   F   F
  0.7142899999999982  0.8571400000000011  0.1519999999999970   F   F   F
  0.1428599999999989  0.5714299999999994  0.1519999999999970   F   F   F
  0.4285700000000006  0.7142899999999983  0.1519999999999970   F   F   F
  0.8571400000000012  0.4285700000000006  0.1519999999999970   F   F   F
  0.2857100000000017  0.1428599999999989  0.1519999999999970   F   F   F
  0.1897074418770379  0.7629682168468612  0.2720710030014213   T   T   T
  0.4763436567472028  0.9028344598726257  0.2726028427524544   T   T   T
  0.9042599461146658  0.6199231842227200  0.2731573592883584   T   T   T
  0.3340109901901719  0.3331002398425153  0.2732526064414846   T   T   T
  0.0481036703865314  0.1903566173766480  0.2733244581077979   T   T   T
  0.7610145881370359  0.0491888420055334  0.2738201913447410   T   T   T
  0.6206246562573375  0.4746747610278015  0.2740516319180569   T   T   T
  0.3725030896566889  0.5358507046914619  0.3921875946650457   T   T   T
  0.5214946869075120  0.0852870145252021  0.3926796654069584   T   T   T
  0.9505610028929136  0.8117892276382983  0.3931883448083719   T   T   T
  0.0985114268720640  0.3824993903856997  0.3932995577997803   T   T   T
  0.2380204562283824  0.9504633575892323  0.3934039298777566   T   T   T
  0.6695994922600412  0.6638551299984096  0.3947817487235469   T   T   T
  0.8190091047228419  0.2359653941458809  0.3961268150754658   T   T   T
  0.5522863098698264  0.2900156286247017  0.4766113850570878   T   T   T
  0.9047600000000032  0.6190500000000012  0.0000000000000000   F   F   F
  0.3333299999999966  0.3333299999999966  0.0000000000000000   F   F   F
  0.1904800000000009  0.7618999999999971  0.0000000000000000   F   F   F
  0.6190500000000012  0.4761900000000026  0.0000000000000000   F   F   F
  0.0476200000000020  0.1904800000000009  0.0000000000000000   F   F   F
  0.4761900000000029  0.9047600000000027  0.0000000000000000   F   F   F
  0.7618999999999971  0.0476200000000020  0.0000000000000000   F   F   F
  0.8571400000000012  0.4285700000000006  0.0607999999999973   F   F   F
  0.2857100000000017  0.1428599999999989  0.0607999999999973   F   F   F
  0.5714299999999992  0.2857100000000014  0.0607999999999973   F   F   F
  0.7142899999999982  0.8571400000000011  0.0607999999999973   F   F   F
  0.1428599999999973  0.5714299999999994  0.0607999999999973   F   F   F
  0.4285700000000006  0.7142899999999983  0.0607999999999973   F   F   F
  0.0000000000000000  0.0000000000000000  0.0607999999999973   F   F   F
  0.8095199999999638  0.2381000000000028  0.1215999999999945   F   F   F
  0.2381000000000032  0.9523799999999977  0.1215999999999945   F   F   F
  0.5238099999999974  0.0952399999999969  0.1215999999999945   F   F   F
  0.6666700000000026  0.6666700000000034  0.1215999999999945   F   F   F
  0.0952399999999961  0.3809499999999986  0.1215999999999945   F   F   F
  0.9523799999999978  0.8095199999999918  0.1215999999999945   F   F   F
  0.3809499999999986  0.5238099999999974  0.1215999999999945   F   F   F
  0.4761900000000037  0.9047600000000027  0.1823999999999963   F   F   F
  0.7619000000000048  0.0476200000000020  0.1823999999999963   F   F   F
  0.1904800000000009  0.7618999999999971  0.1823999999999963   F   F   F
  0.6190500000000014  0.4761900000000026  0.1823999999999963   F   F   F
  0.0476200000000020  0.1904800000000009  0.1823999999999963   F   F   F
  0.9047600000000032  0.6190500000000012  0.1823999999999963   F   F   F
  0.3333299999999966  0.3333299999999966  0.1823999999999963   F   F   F
  0.0001522085237526 -0.0000010804286146  0.2424640929428995   T   T   T
  0.4296166020949469  0.7135398679610743  0.2425946640018985   T   T   T
  0.2851887795787562  0.1431938988765743  0.2426628579818089   T   T   T
  0.1417857031916593  0.5722883129559153  0.2427745666554210   T   T   T
  0.7139818957652392  0.8566135934736345  0.2429589218719067   T   T   T
  0.8588301111274865  0.4288146048920915  0.2430389348297135   T   T   T
  0.5709562692665715  0.2853165042306779  0.2433349456505813   T   T   T
  0.8114973040440020  0.2377639707596309  0.3029168997094276   T   T   T
  0.3798721256563090  0.5251892127917973  0.3031845696257667   T   T   T
  0.2387895870460239  0.9514807400435725  0.3033963309128683   T   T   T
  0.5213475171638616  0.0928955487408724  0.3036048328547465   T   T   T
  0.9499577397781497  0.8136870241520708  0.3040347489402400   T   T   T
  0.6679336149225430  0.6633033020208359  0.3043976783658731   T   T   T
  0.0982130148564994  0.3817744152542934  0.3047310346784471   T   T   T
  0.1899490525671732  0.7616646148105690  0.3610140905285776   T   T   T
  0.9052006202969597  0.6220797931516535  0.3623363934010855   T   T   T
  0.4775516917414742  0.8998635307697965  0.3629622983641108   T   T   T
  0.0564683636946917  0.1885899576070669  0.3634348295067157   T   T   T
  0.3433013563843512  0.3318858455253850  0.3640048545176722   T   T   T
  0.7518900042944663  0.0511700398651028  0.3645470550110791   T   T   T
  0.6123261265084166  0.4771032953346504  0.3653142811377639   T   T   T
  0.1433663351963194  0.5738064336225999  0.4231535412618845   T   T   T
  0.2920756016249441  0.1397655472324730  0.4240894827635988   T   T   T
  0.4210128237819908  0.7167331645086398  0.4243145370500445   T   T   T
  0.7125441215245248  0.8556469667447387  0.4244945169340542   T   T   T
  0.0126229738165505  0.9828598326783390  0.4247751636716972   T   T   T
  0.8671957170795834  0.4374935427592275  0.4251176982260250   T   T   T
  0.5603097371830331  0.2880367083933673  0.4394536851589919   T   T   T
  0.7499580647952868  0.6167304099993466  0.5450345731754805   T   T   T
 
  0.00000000E+00  0.00000000E+00  0.00000000E+00
  0.00000000E+00  0.00000000E+00  0.00000000E+00
  0.00000000E+00  0.00000000E+00  0.00000000E+00
  0.00000000E+00  0.00000000E+00  0.00000000E+00
  0.00000000E+00  0.00000000E+00  0.00000000E+00
  0.00000000E+00  0.00000000E+00  0.00000000E+00
  0.00000000E+00  0.00000000E+00  0.00000000E+00
  0.00000000E+00  0.00000000E+00  0.00000000E+00
  0.00000000E+00  0.00000000E+00  0.00000000E+00
  0.00000000E+00  0.00000000E+00  0.00000000E+00
  0.00000000E+00  0.00000000E+00  0.00000000E+00
  0.00000000E+00  0.00000000E+00  0.00000000E+00
  0.00000000E+00  0.00000000E+00  0.00000000E+00
  0.00000000E+00  0.00000000E+00  0.00000000E+00
  0.00000000E+00  0.00000000E+00  0.00000000E+00
  0.00000000E+00  0.00000000E+00  0.00000000E+00
  0.00000000E+00  0.00000000E+00  0.00000000E+00
  0.00000000E+00  0.00000000E+00  0.00000000E+00
  0.00000000E+00  0.00000000E+00  0.00000000E+00
  0.00000000E+00  0.00000000E+00  0.00000000E+00
  0.00000000E+00  0.00000000E+00  0.00000000E+00
  0.00000000E+00  0.00000000E+00  0.00000000E+00
  0.00000000E+00  0.00000000E+00  0.00000000E+00
  0.00000000E+00  0.00000000E+00  0.00000000E+00
  0.00000000E+00  0.00000000E+00  0.00000000E+00
  0.00000000E+00  0.00000000E+00  0.00000000E+00
  0.00000000E+00  0.00000000E+00  0.00000000E+00
  0.00000000E+00  0.00000000E+00  0.00000000E+00
  0.00000000E+00  0.00000000E+00  0.00000000E+00
  0.00000000E+00  0.00000000E+00  0.00000000E+00
  0.00000000E+00  0.00000000E+00  0.00000000E+00
  0.00000000E+00  0.00000000E+00  0.00000000E+00
  0.00000000E+00  0.00000000E+00  0.00000000E+00
  0.00000000E+00  0.00000000E+00  0.00000000E+00
  0.00000000E+00  0.00000000E+00  0.00000000E+00
  0.00000000E+00  0.00000000E+00  0.00000000E+00
  0.00000000E+00  0.00000000E+00  0.00000000E+00
  0.00000000E+00  0.00000000E+00  0.00000000E+00
  0.00000000E+00  0.00000000E+00  0.00000000E+00
  0.00000000E+00  0.00000000E+00  0.00000000E+00
  0.00000000E+00  0.00000000E+00  0.00000000E+00
  0.00000000E+00  0.00000000E+00  0.00000000E+00
  0.00000000E+00  0.00000000E+00  0.00000000E+00
  0.00000000E+00  0.00000000E+00  0.00000000E+00
  0.00000000E+00  0.00000000E+00  0.00000000E+00
  0.00000000E+00  0.00000000E+00  0.00000000E+00
  0.00000000E+00  0.00000000E+00  0.00000000E+00
  0.00000000E+00  0.00000000E+00  0.00000000E+00
  0.00000000E+00  0.00000000E+00  0.00000000E+00
  0.00000000E+00  0.00000000E+00  0.00000000E+00
  0.00000000E+00  0.00000000E+00  0.00000000E+00
  0.00000000E+00  0.00000000E+00  0.00000000E+00
  0.00000000E+00  0.00000000E+00  0.00000000E+00
  0.00000000E+00  0.00000000E+00  0.00000000E+00
  0.00000000E+00  0.00000000E+00  0.00000000E+00
  0.00000000E+00  0.00000000E+00  0.00000000E+00
  0.00000000E+00  0.00000000E+00  0.00000000E+00
  0.00000000E+00  0.00000000E+00  0.00000000E+00
  0.00000000E+00  0.00000000E+00  0.00000000E+00
  0.00000000E+00  0.00000000E+00  0.00000000E+00
  0.00000000E+00  0.00000000E+00  0.00000000E+00
  0.00000000E+00  0.00000000E+00  0.00000000E+00
  0.00000000E+00  0.00000000E+00  0.00000000E+00
  0.00000000E+00  0.00000000E+00  0.00000000E+00
  0.00000000E+00  0.00000000E+00  0.00000000E+00
  0.00000000E+00  0.00000000E+00  0.00000000E+00
  0.00000000E+00  0.00000000E+00  0.00000000E+00
  0.00000000E+00  0.00000000E+00  0.00000000E+00
  0.00000000E+00  0.00000000E+00  0.00000000E+00
  0.00000000E+00  0.00000000E+00  0.00000000E+00
  0.00000000E+00  0.00000000E+00  0.00000000E+00
  0.00000000E+00  0.00000000E+00  0.00000000E+00
  0.00000000E+00  0.00000000E+00  0.00000000E+00
  0.00000000E+00  0.00000000E+00  0.00000000E+00
  0.00000000E+00  0.00000000E+00  0.00000000E+00
  0.00000000E+00  0.00000000E+00  0.00000000E+00
  0.00000000E+00  0.00000000E+00  0.00000000E+00
  0.00000000E+00  0.00000000E+00  0.00000000E+00
  0.00000000E+00  0.00000000E+00  0.00000000E+00
  0.00000000E+00  0.00000000E+00  0.00000000E+00
  0.00000000E+00  0.00000000E+00  0.00000000E+00
  0.00000000E+00  0.00000000E+00  0.00000000E+00
  0.00000000E+00  0.00000000E+00  0.00000000E+00
  0.00000000E+00  0.00000000E+00  0.00000000E+00
  0.00000000E+00  0.00000000E+00  0.00000000E+00
  0.00000000E+00  0.00000000E+00  0.00000000E+00
  0.00000000E+00  0.00000000E+00  0.00000000E+00
