12n                                     
   1.00000000000000     
    13.4721510000000002    0.0000000000000000    0.0000000000000000
     6.7360755000000001   11.6672250000000002    0.0000000000000000
     0.0000002500000000    0.0000002500000000   26.1140000000000008
   Ce   H    O 
    48     1    94
Selective dynamics
Direct
  0.5089628798769121  0.1781277098138511  0.0304000000000003   F   F   F
  0.1756295465435826  0.3447943764805217  0.0304000000000003   F   F   F
  0.0089628798769097  0.6781277098138592  0.0304000000000003   F   F   F
  0.3422962132102469  0.5114610431471862  0.0304000000000003   F   F   F
  0.8422962132102474  0.5114610431471862  0.0304000000000003   F   F   F
  0.5089628798769114  0.6781277098138592  0.0304000000000003   F   F   F
  0.3422962132102469  0.0114610431471860  0.0304000000000003   F   F   F
  0.6756295465435828  0.8447943764805257  0.0304000000000003   F   F   F
  0.8422962132102497  0.0114610431471789  0.0304000000000003   F   F   F
  0.6756295465435861  0.3447943764805217  0.0304000000000003   F   F   F
  0.0089628798769037  0.1781277098138724  0.0304000000000003   F   F   F
  0.1756295465435817  0.8447943764805121  0.0304000000000003   F   F   F
  0.1756362160713890  0.6781210509639450  0.1520000000000015   F   F   F
  0.1756362160713890  0.1781210509639451  0.1520000000000015   F   F   F
  0.8423028827380534  0.8447877176306164  0.1520000000000015   F   F   F
  0.3423028827380533  0.3447877176306164  0.1520000000000015   F   F   F
  0.0089695494047247  0.5114543842972807  0.1520000000000015   F   F   F
  0.5089695494047248  0.5114543842972807  0.1520000000000015   F   F   F
  0.8423028827380674  0.3447877176306093  0.1520000000000015   F   F   F
  0.6756362160713960  0.6781210509639523  0.1520000000000015   F   F   F
  0.3423028827380530  0.8447877176306238  0.1520000000000015   F   F   F
  0.5089695494047319  0.0114543842972808  0.1520000000000015   F   F   F
  0.0089695494047319  0.0114543842972737  0.1520000000000015   F   F   F
  0.6756362160713889  0.1781210509639451  0.1520000000000015   F   F   F
  0.0113926669617696  0.3433735847541080  0.2730674859333733   T   T   T
  0.3411879213404493  0.1786861045426741  0.2744778754307716   T   T   T
  0.0067025133753515  0.8466550111951088  0.2732890683435766   T   T   T
  0.1756197600355749  0.5127201233820903  0.2719516985451228   T   T   T
  0.5078268433742630  0.3460776957094137  0.2723889657880187   T   T   T
  0.6733505224581576  0.0139295261827724  0.2702969264156430   T   T   T
  0.8413059131398759  0.1788870080797689  0.2718789279384634   T   T   T
  0.1746324814262699  0.0111228799995047  0.2746867873854215   T   T   T
  0.8416593997168648  0.6783368366497051  0.2738528656401133   T   T   T
  0.3416166481317628  0.6778164780848597  0.2715649302118133   T   T   T
  0.5095451039400007  0.8425407925898637  0.2722838784320933   T   T   T
  0.6764132081511109  0.5112696185622083  0.2743449519250305   T   T   T
  0.8561627985593429  0.4971772949630720  0.3938064665934551   T   T   T
  0.6755827357678225  0.8617083574941281  0.3897658816399170   T   T   T
  0.5047447317238680  0.1831058699493625  0.3938804236052287   T   T   T
  0.1780054730383918  0.3628470471235169  0.3934444828611391   T   T   T
  0.8315191626509278  0.0153206048747596  0.3922019945692297   T   T   T
  0.3446718979574171  0.5093851864444142  0.3934834747178074   T   T   T
  0.1796380992065925  0.8388749579377275  0.3940065237935834   T   T   T
 -0.0063296320196586  0.1800607663338797  0.3928317450661791   T   T   T
  0.3579956186387834 -0.0064425964237135  0.3934805147093079   T   T   T
  0.6724106970984621  0.3465303606207492  0.3945125668241598   T   T   T
  0.0073152065032613  0.6840317040465114  0.3953921135727576   T   T   T
  0.4967118708719944  0.6724143706015997  0.3930819942706571   T   T   T
  0.9990897648201033  1.0011498193947117  0.4779995078503280   T   T   T
  0.3423095458283133  0.6781143745263041  0.0000000000000000   F   F   F
  0.1756428791616429  0.0114477078596451  0.0000000000000000   F   F   F
  0.8423095458283059  0.6781143745263183  0.0000000000000000   F   F   F
  0.1756428791616423  0.5114477078596460  0.0000000000000000   F   F   F
  0.3423095458283072  0.1781143745263166  0.0000000000000000   F   F   F
  0.0089762124949767  0.8447810411929845  0.0000000000000000   F   F   F
  0.5089762124949786  0.3447810411929809  0.0000000000000000   F   F   F
  0.5089762124949768  0.8447810411929845  0.0000000000000000   F   F   F
  0.8423095458283072  0.1781143745263236  0.0000000000000000   F   F   F
  0.6756428791616431  0.0114477078596451  0.0000000000000000   F   F   F
  0.6756428791616423  0.5114477078596460  0.0000000000000000   F   F   F
  0.0089762124949785  0.3447810411929809  0.0000000000000000   F   F   F
  0.1756362139255496  0.6781210451013592  0.0608000000000006   F   F   F
  0.0089695472588632  0.5114543784347083  0.0608000000000006   F   F   F
  0.1756362139255216  0.1781210451013849  0.0608000000000006   F   F   F
  0.8423028805921932  0.8447877117680495  0.0608000000000006   F   F   F
  0.3423028805922074  0.3447877117680491  0.0608000000000006   F   F   F
  0.3423028805922058  0.8447877117680381  0.0608000000000006   F   F   F
  0.5089695472588701  0.5114543784347083  0.0608000000000006   F   F   F
  0.8423028805922058  0.3447877117680352  0.0608000000000006   F   F   F
  0.6756362139255345  0.6781210451013744  0.0608000000000006   F   F   F
  0.6756362139255329  0.1781210451013708  0.0608000000000006   F   F   F
  0.5089695472588717  0.0114543784347063  0.0608000000000006   F   F   F
  0.0089695472588716  0.0114543784347063  0.0608000000000006   F   F   F
  0.5089628820227645  0.6781277156764318  0.1216000000000012   F   F   F
  0.3422962153560719  0.5114610490097817  0.1216000000000012   F   F   F
  0.1756295486894143  0.3447943823431180  0.1216000000000012   F   F   F
  0.8422962153561007  0.5114610490097604  0.1216000000000012   F   F   F
  0.6756295486894288  0.3447943823431104  0.1216000000000012   F   F   F
  0.8422962153561002  0.0114610490097604  0.1216000000000012   F   F   F
  0.0089628820227645  0.1781277156764319  0.1216000000000012   F   F   F
  0.6756295486894275  0.8447943823430988  0.1216000000000012   F   F   F
  0.1756295486894138  0.8447943823430988  0.1216000000000012   F   F   F
  0.0089628820227493  0.6781277156764389  0.1216000000000012   F   F   F
  0.3422962153560929  0.0114610490097817  0.1216000000000012   F   F   F
  0.5089628820227434  0.1781277156764390  0.1216000000000012   F   F   F
  0.3423095501200129  0.6781143862514671  0.1824000000000019   F   F   F
  0.3423095501200132  0.1781143862514803  0.1824000000000019   F   F   F
  0.0089762167866763  0.8447810529181471  0.1824000000000019   F   F   F
  0.1756428834533422  0.5114477195848155  0.1824000000000019   F   F   F
  0.5089762167866698  0.3447810529181524  0.1824000000000019   F   F   F
  0.6756428834533484  0.5114477195848026  0.1824000000000019   F   F   F
  0.5089762167866761  0.8447810529181404  0.1824000000000019   F   F   F
  0.1756428834533423  0.0114477195848082  0.1824000000000019   F   F   F
  0.8423095501200130  0.6781143862514742  0.1824000000000019   F   F   F
  0.8423095501199992  0.1781143862514947  0.1824000000000019   F   F   F
  0.0089762167866703  0.3447810529181524  0.1824000000000019   F   F   F
  0.6756428834533421  0.0114477195848153  0.1824000000000019   F   F   F
  0.1773959986471959  0.1762194791374827  0.2441761245333871   T   T   T
  0.8422980462316810  0.8440453540607019  0.2418884583364806   T   T   T
  0.0084035007326481  0.5144478552816467  0.2422164200861995   T   T   T
  0.3423390287150481  0.3446022445934835  0.2420446758197134   T   T   T
  0.1726874056275001  0.6796002142024645  0.2428402055659793   T   T   T
  0.5104466680448312  0.5104731935176285  0.2423110324888921   T   T   T
  0.3402256830100037  0.8459211136392769  0.2419688897797523   T   T   T
  0.5069820171373938  0.0126094556159365  0.2418272309333535   T   T   T
  0.8412083131534080  0.3458744497489142  0.2420806179669316   T   T   T
  0.6741474306081390  0.1797594058432923  0.2421734669226270   T   T   T
  0.0086600393695077  0.0106616113452893  0.2428971649048694   T   T   T
  0.6772925003983068  0.6774780922767004  0.2437697711420508   T   T   T
  0.5047641566137452  0.6801688781710311  0.3009500045565444   T   T   T
  0.5042180547699470  0.1792365856839528  0.3036255687134414   T   T   T
  0.6730233389978695  0.8507903070050715  0.3015416578700209   T   T   T
  0.8508106904355691  0.5056619224522917  0.3031723359571956   T   T   T
  0.1748382023524855  0.3492390073038030  0.3014800230147983   T   T   T
  0.3440987032578248  0.5099522707919690  0.3016334984769092   T   T   T
  0.1753482268344343  0.8455150480452571  0.3039043749992453   T   T   T
  0.0045063583566600  0.1804212410391633  0.3012505852330463   T   T   T
  0.8397577261847038  0.0107836005071286  0.3017954910492274   T   T   T
  0.6775165344636248  0.3460270401449527  0.3044626363222845   T   T   T
  0.3489350355684537  0.0027120743835722  0.3040783035029817   T   T   T
  0.0015080801739709  0.6826804530700492  0.3063566799994818   T   T   T
  0.5096619380961079  0.3435518887541451  0.3608051536417369   T   T   T
  0.0222223750332019  0.3321791014223380  0.3695686216579081   T   T   T
  0.1776119918681124  0.5211626593946121  0.3611787217084660   T   T   T
  0.3365501577101006  0.1781265815883563  0.3670163103360380   T   T   T
  0.0054101070505433  0.8548830852061414  0.3641243705035994   T   T   T
  0.6733143185842866  0.0176499606112796  0.3596514703657994   T   T   T
  0.8394117764905842  0.1705432589346391  0.3623757132222758   T   T   T
  0.3369569593376949  0.6747690150097641  0.3611374920226091   T   T   T
  0.1703604800823028  0.0148640769735563  0.3663985889820792   T   T   T
  0.8226411797398537  0.6874227315458212  0.3673983066659319   T   T   T
  0.5288034949160799  0.8287563313031497  0.3697591000338752   T   T   T
  0.6755036208102055  0.5170843511919636  0.3645476795371460   T   T   T
  0.6721148355978194  0.1765786833159245  0.4246618473473611   T   T   T
  0.3526054869899026  0.3489096690432275  0.4265975100599323   T   T   T
  1.0092190567782735  0.5323173489050390  0.4269628141253767   T   T   T
  0.8267951317117532  0.3422484363802648  0.4279449558699953   T   T   T
  0.5221166953027909  0.0128008334795544  0.4258447867299369   T   T   T
  0.1711657008250031  0.6834667771241393  0.4256545414302106   T   T   T
  0.3295119462600289  0.8395236465153294  0.4278785828768197   T   T   T
  0.5058460042357452  0.5008622901252971  0.4261331314421165   T   T   T
  0.0025541612723580  0.0062715216580063  0.4409524721724813   T   T   T
  0.8365764559261895  0.8562021174749824  0.4247284796455479   T   T   T
 
  0.00000000E+00  0.00000000E+00  0.00000000E+00
  0.00000000E+00  0.00000000E+00  0.00000000E+00
  0.00000000E+00  0.00000000E+00  0.00000000E+00
  0.00000000E+00  0.00000000E+00  0.00000000E+00
  0.00000000E+00  0.00000000E+00  0.00000000E+00
  0.00000000E+00  0.00000000E+00  0.00000000E+00
  0.00000000E+00  0.00000000E+00  0.00000000E+00
  0.00000000E+00  0.00000000E+00  0.00000000E+00
  0.00000000E+00  0.00000000E+00  0.00000000E+00
  0.00000000E+00  0.00000000E+00  0.00000000E+00
  0.00000000E+00  0.00000000E+00  0.00000000E+00
  0.00000000E+00  0.00000000E+00  0.00000000E+00
  0.00000000E+00  0.00000000E+00  0.00000000E+00
  0.00000000E+00  0.00000000E+00  0.00000000E+00
  0.00000000E+00  0.00000000E+00  0.00000000E+00
  0.00000000E+00  0.00000000E+00  0.00000000E+00
  0.00000000E+00  0.00000000E+00  0.00000000E+00
  0.00000000E+00  0.00000000E+00  0.00000000E+00
  0.00000000E+00  0.00000000E+00  0.00000000E+00
  0.00000000E+00  0.00000000E+00  0.00000000E+00
  0.00000000E+00  0.00000000E+00  0.00000000E+00
  0.00000000E+00  0.00000000E+00  0.00000000E+00
  0.00000000E+00  0.00000000E+00  0.00000000E+00
  0.00000000E+00  0.00000000E+00  0.00000000E+00
  0.00000000E+00  0.00000000E+00  0.00000000E+00
  0.00000000E+00  0.00000000E+00  0.00000000E+00
  0.00000000E+00  0.00000000E+00  0.00000000E+00
  0.00000000E+00  0.00000000E+00  0.00000000E+00
  0.00000000E+00  0.00000000E+00  0.00000000E+00
  0.00000000E+00  0.00000000E+00  0.00000000E+00
  0.00000000E+00  0.00000000E+00  0.00000000E+00
  0.00000000E+00  0.00000000E+00  0.00000000E+00
  0.00000000E+00  0.00000000E+00  0.00000000E+00
  0.00000000E+00  0.00000000E+00  0.00000000E+00
  0.00000000E+00  0.00000000E+00  0.00000000E+00
  0.00000000E+00  0.00000000E+00  0.00000000E+00
  0.00000000E+00  0.00000000E+00  0.00000000E+00
  0.00000000E+00  0.00000000E+00  0.00000000E+00
  0.00000000E+00  0.00000000E+00  0.00000000E+00
  0.00000000E+00  0.00000000E+00  0.00000000E+00
  0.00000000E+00  0.00000000E+00  0.00000000E+00
  0.00000000E+00  0.00000000E+00  0.00000000E+00
  0.00000000E+00  0.00000000E+00  0.00000000E+00
  0.00000000E+00  0.00000000E+00  0.00000000E+00
  0.00000000E+00  0.00000000E+00  0.00000000E+00
  0.00000000E+00  0.00000000E+00  0.00000000E+00
  0.00000000E+00  0.00000000E+00  0.00000000E+00
  0.00000000E+00  0.00000000E+00  0.00000000E+00
  0.00000000E+00  0.00000000E+00  0.00000000E+00
  0.00000000E+00  0.00000000E+00  0.00000000E+00
  0.00000000E+00  0.00000000E+00  0.00000000E+00
  0.00000000E+00  0.00000000E+00  0.00000000E+00
  0.00000000E+00  0.00000000E+00  0.00000000E+00
  0.00000000E+00  0.00000000E+00  0.00000000E+00
  0.00000000E+00  0.00000000E+00  0.00000000E+00
  0.00000000E+00  0.00000000E+00  0.00000000E+00
  0.00000000E+00  0.00000000E+00  0.00000000E+00
  0.00000000E+00  0.00000000E+00  0.00000000E+00
  0.00000000E+00  0.00000000E+00  0.00000000E+00
  0.00000000E+00  0.00000000E+00  0.00000000E+00
  0.00000000E+00  0.00000000E+00  0.00000000E+00
  0.00000000E+00  0.00000000E+00  0.00000000E+00
  0.00000000E+00  0.00000000E+00  0.00000000E+00
  0.00000000E+00  0.00000000E+00  0.00000000E+00
  0.00000000E+00  0.00000000E+00  0.00000000E+00
  0.00000000E+00  0.00000000E+00  0.00000000E+00
  0.00000000E+00  0.00000000E+00  0.00000000E+00
  0.00000000E+00  0.00000000E+00  0.00000000E+00
  0.00000000E+00  0.00000000E+00  0.00000000E+00
  0.00000000E+00  0.00000000E+00  0.00000000E+00
  0.00000000E+00  0.00000000E+00  0.00000000E+00
  0.00000000E+00  0.00000000E+00  0.00000000E+00
  0.00000000E+00  0.00000000E+00  0.00000000E+00
  0.00000000E+00  0.00000000E+00  0.00000000E+00
  0.00000000E+00  0.00000000E+00  0.00000000E+00
  0.00000000E+00  0.00000000E+00  0.00000000E+00
  0.00000000E+00  0.00000000E+00  0.00000000E+00
  0.00000000E+00  0.00000000E+00  0.00000000E+00
  0.00000000E+00  0.00000000E+00  0.00000000E+00
  0.00000000E+00  0.00000000E+00  0.00000000E+00
  0.00000000E+00  0.00000000E+00  0.00000000E+00
  0.00000000E+00  0.00000000E+00  0.00000000E+00
  0.00000000E+00  0.00000000E+00  0.00000000E+00
  0.00000000E+00  0.00000000E+00  0.00000000E+00
  0.00000000E+00  0.00000000E+00  0.00000000E+00
  0.00000000E+00  0.00000000E+00  0.00000000E+00
  0.00000000E+00  0.00000000E+00  0.00000000E+00
  0.00000000E+00  0.00000000E+00  0.00000000E+00
  0.00000000E+00  0.00000000E+00  0.00000000E+00
  0.00000000E+00  0.00000000E+00  0.00000000E+00
  0.00000000E+00  0.00000000E+00  0.00000000E+00
  0.00000000E+00  0.00000000E+00  0.00000000E+00
  0.00000000E+00  0.00000000E+00  0.00000000E+00
  0.00000000E+00  0.00000000E+00  0.00000000E+00
  0.00000000E+00  0.00000000E+00  0.00000000E+00
  0.00000000E+00  0.00000000E+00  0.00000000E+00
  0.00000000E+00  0.00000000E+00  0.00000000E+00
  0.00000000E+00  0.00000000E+00  0.00000000E+00
  0.00000000E+00  0.00000000E+00  0.00000000E+00
  0.00000000E+00  0.00000000E+00  0.00000000E+00
  0.00000000E+00  0.00000000E+00  0.00000000E+00
  0.00000000E+00  0.00000000E+00  0.00000000E+00
  0.00000000E+00  0.00000000E+00  0.00000000E+00
  0.00000000E+00  0.00000000E+00  0.00000000E+00
  0.00000000E+00  0.00000000E+00  0.00000000E+00
  0.00000000E+00  0.00000000E+00  0.00000000E+00
  0.00000000E+00  0.00000000E+00  0.00000000E+00
  0.00000000E+00  0.00000000E+00  0.00000000E+00
  0.00000000E+00  0.00000000E+00  0.00000000E+00
  0.00000000E+00  0.00000000E+00  0.00000000E+00
  0.00000000E+00  0.00000000E+00  0.00000000E+00
  0.00000000E+00  0.00000000E+00  0.00000000E+00
  0.00000000E+00  0.00000000E+00  0.00000000E+00
  0.00000000E+00  0.00000000E+00  0.00000000E+00
  0.00000000E+00  0.00000000E+00  0.00000000E+00
  0.00000000E+00  0.00000000E+00  0.00000000E+00
  0.00000000E+00  0.00000000E+00  0.00000000E+00
  0.00000000E+00  0.00000000E+00  0.00000000E+00
  0.00000000E+00  0.00000000E+00  0.00000000E+00
  0.00000000E+00  0.00000000E+00  0.00000000E+00
  0.00000000E+00  0.00000000E+00  0.00000000E+00
  0.00000000E+00  0.00000000E+00  0.00000000E+00
  0.00000000E+00  0.00000000E+00  0.00000000E+00
  0.00000000E+00  0.00000000E+00  0.00000000E+00
  0.00000000E+00  0.00000000E+00  0.00000000E+00
  0.00000000E+00  0.00000000E+00  0.00000000E+00
  0.00000000E+00  0.00000000E+00  0.00000000E+00
  0.00000000E+00  0.00000000E+00  0.00000000E+00
  0.00000000E+00  0.00000000E+00  0.00000000E+00
  0.00000000E+00  0.00000000E+00  0.00000000E+00
  0.00000000E+00  0.00000000E+00  0.00000000E+00
  0.00000000E+00  0.00000000E+00  0.00000000E+00
  0.00000000E+00  0.00000000E+00  0.00000000E+00
  0.00000000E+00  0.00000000E+00  0.00000000E+00
  0.00000000E+00  0.00000000E+00  0.00000000E+00
  0.00000000E+00  0.00000000E+00  0.00000000E+00
  0.00000000E+00  0.00000000E+00  0.00000000E+00
  0.00000000E+00  0.00000000E+00  0.00000000E+00
  0.00000000E+00  0.00000000E+00  0.00000000E+00
  0.00000000E+00  0.00000000E+00  0.00000000E+00
  0.00000000E+00  0.00000000E+00  0.00000000E+00
  0.00000000E+00  0.00000000E+00  0.00000000E+00
  0.00000000E+00  0.00000000E+00  0.00000000E+00
