ov16n                                   
   1.00000000000000     
    15.5563000000000002    0.0000000000000000    0.0000000000000000
    -7.7781500000000001   13.4721510000000002    0.0000000000000000
     0.0000010000000000    0.0000010000000000   26.1140000000000008
   Ce   H    O 
    64     1   127
Selective dynamics
Direct
  0.4166700000000034  0.5833299999999966  0.0304000000000002   F   F   F
  0.4166700000000034  0.8333299999999966  0.0304000000000002   F   F   F
  0.6666700000000034  0.8333299999999966  0.0304000000000002   F   F   F
  0.6666700000000034  0.5833299999999966  0.0304000000000002   F   F   F
  0.9166700000000058  0.5833299999999966  0.0304000000000002   F   F   F
  0.9166700000000034  0.8333299999999966  0.0304000000000002   F   F   F
  0.1666700000000033  0.3333299999999962  0.0304000000000002   F   F   F
  0.1666700000000056  0.0833299999999966  0.0304000000000002   F   F   F
  0.4166700000000035  0.0833299999999966  0.0304000000000002   F   F   F
  0.4166700000000026  0.3333299999999962  0.0304000000000002   F   F   F
  0.6666700000000034  0.3333299999999962  0.0304000000000002   F   F   F
  0.6666700000000004  0.0833299999999966  0.0304000000000002   F   F   F
  0.9166700000000034  0.0833299999999966  0.0304000000000002   F   F   F
  0.9166700000000190  0.3333299999999962  0.0304000000000002   F   F   F
  0.1666699999999973  0.8333299999999966  0.0304000000000002   F   F   F
  0.1666700000000034  0.5833299999999966  0.0304000000000002   F   F   F
  0.0000000000000000  0.5000000000000000  0.1520000000000010   F   F   F
  0.0000000000000000  0.7500000000000000  0.1520000000000010   F   F   F
  0.2499999999999963  0.7500000000000000  0.1520000000000010   F   F   F
  0.2500000000000047  0.5000000000000000  0.1520000000000010   F   F   F
  0.5000000000000000  0.5000000000000000  0.1520000000000010   F   F   F
  0.5000000000000000  0.7500000000000000  0.1520000000000010   F   F   F
  0.7500000000000000  0.7500000000000000  0.1520000000000010   F   F   F
  0.7500000000000000  0.5000000000000000  0.1520000000000010   F   F   F
  0.0000000000000000  0.0000000000000000  0.1520000000000010   F   F   F
 -0.0000000000000015  0.2500000000000054  0.1520000000000010   F   F   F
  0.2500000000000035  0.2500000000000054  0.1520000000000010   F   F   F
  0.2500000000000074  0.0000000000000000  0.1520000000000010   F   F   F
  0.5000000000000000  0.0000000000000000  0.1520000000000010   F   F   F
  0.5000000000000000  0.2500000000000054  0.1520000000000010   F   F   F
  0.7499999999999976  0.2500000000000054  0.1520000000000010   F   F   F
  0.7500000000000000  0.0000000000000000  0.1520000000000010   F   F   F
  0.0831999254532091  0.4174317891583494  0.2721304014749948   T   T   T
  0.5831003574454579  0.4173870007558120  0.2744570064611920   T   T   T
  0.3328499897529663  0.6672889746680236  0.2724782945780582   T   T   T
  0.5828424658911929  0.6657531533466466  0.2750345353247415   T   T   T
  0.0832151597315973  0.6665243347317318  0.2727339438558936   T   T   T
  0.8339400352623708  0.6668973958426188  0.2722867290469443   T   T   T
  0.8337719828422602  0.9164385216160833  0.2728895896488746   T   T   T
  0.3334337208111776  0.9167312131856048  0.2731377929142102   T   T   T
  0.5834766063781751  0.9166880022063615  0.2729819072574128   T   T   T
  0.8331445348839537  0.4169490058698295  0.2725867145292552   T   T   T
  0.8339328398873475  0.1671339406965077  0.2726349173566143   T   T   T
  0.5833951744867079  0.1669436653436624  0.2728503900438572   T   T   T
  0.3339341247594729  0.4171586626935303  0.2747984232796742   T   T   T
  0.0827763058019149  0.9156969402389142  0.2722919053344574   T   T   T
  0.3328597182184698  0.1658215055194383  0.2725449302459790   T   T   T
  0.0844912521936862  0.1672429759070220  0.2733516332114106   T   T   T
  0.1624700332047816  0.3389242995002168  0.3931414591415802   T   T   T
  0.4140540316092310  0.3196320088994872  0.3931762041596660   T   T   T
  0.4181985779113755  0.8370933489702811  0.3938085737039621   T   T   T
  0.6678215662459347  0.8351968984290513  0.3940613567323340   T   T   T
  0.4084127939100887  0.5920406057425903  0.3937174159449966   T   T   T
  0.1628952536864340  0.5843221442909925  0.3936953413067553   T   T   T
  0.6831809265703414  0.5918383930345867  0.3935730476421199   T   T   T
  0.6681446064621113  0.0838426762288501  0.3923789511390943   T   T   T
  0.9177155858286554  0.8348633126568066  0.3936514755002284   T   T   T
  0.1656500839470905  0.8311543971732661  0.3945030187279662   T   T   T
  0.6686021776370213  0.3328888396681294  0.3939192661400868   T   T   T
  0.9151601717364731  0.3331127043333114  0.3923435197179864   T   T   T
  0.4185329258069780  0.0811025669629596  0.3937987093392417   T   T   T
  0.9176408208286678  0.0842896043336731  0.3926302783446364   T   T   T
  0.9184934342621789  0.5821892513417211  0.3938421603103296   T   T   T
  0.1612259981194699  0.0727468513814163  0.3926322163412559   T   T   T
  0.2340608041072658  0.2353032314390188  0.4778507006805364   T   T   T
  0.0833299999999966  0.6666700000000034  0.0000000000000000   F   F   F
  0.0833299999999902  0.9166700000000034  0.0000000000000000   F   F   F
  0.3333299999999966  0.9166700000000034  0.0000000000000000   F   F   F
  0.3333299999999966  0.4166700000000034  0.0000000000000000   F   F   F
  0.8333299999999966  0.6666700000000034  0.0000000000000000   F   F   F
  0.5833299999999966  0.6666700000000034  0.0000000000000000   F   F   F
  0.5833299999999966  0.9166700000000034  0.0000000000000000   F   F   F
  0.8333299999999966  0.9166700000000034  0.0000000000000000   F   F   F
  0.3333299999999966  0.1666700000000034  0.0000000000000000   F   F   F
  0.8333300000000058  0.1666700000000034  0.0000000000000000   F   F   F
  0.5833299999999966  0.1666700000000034  0.0000000000000000   F   F   F
  0.5833299999999966  0.4166700000000034  0.0000000000000000   F   F   F
  0.0833299999999966  0.1666700000000034  0.0000000000000000   F   F   F
  0.8333300000000113  0.4166700000000034  0.0000000000000000   F   F   F
  0.3333299999999966  0.6666700000000034  0.0000000000000000   F   F   F
  0.0833299999999966  0.4166700000000034  0.0000000000000000   F   F   F
  0.2499999999999963  0.4999999999999924  0.0608000000000004   F   F   F
 -0.0000000000000042  0.4999999999999924  0.0608000000000004   F   F   F
  0.9999999999999943  0.7500000000000082  0.0608000000000004   F   F   F
  0.2499999999999982  0.7500000000000082  0.0608000000000004   F   F   F
  0.7499999999999994  0.4999999999999924  0.0608000000000004   F   F   F
  0.5000000000000050  0.4999999999999924  0.0608000000000004   F   F   F
  0.4999999999999999  0.7500000000000082  0.0608000000000004   F   F   F
  0.7500000000000101  0.7500000000000082  0.0608000000000004   F   F   F
  0.2500000000000000  0.0000000000000000  0.0608000000000004   F   F   F
  0.0000000000000000  0.0000000000000000  0.0608000000000004   F   F   F
  0.0000000000000000  0.2500000000000000  0.0608000000000004   F   F   F
  0.2500000000000000  0.2500000000000000  0.0608000000000004   F   F   F
  0.7500000000000000  0.0000000000000000  0.0608000000000004   F   F   F
  0.5000000000000000  0.0000000000000000  0.0608000000000004   F   F   F
  0.5000000000000000  0.2500000000000000  0.0608000000000004   F   F   F
  0.7500000000000000  0.2500000000000000  0.0608000000000004   F   F   F
  0.1666700000000079  0.0833299999999982  0.1216000000000008   F   F   F
  0.9166700000000099  0.8333299999999775  0.1216000000000008   F   F   F
  0.9166700000000100  0.5833299999999874  0.1216000000000008   F   F   F
  0.6666700000000143  0.5833299999999874  0.1216000000000008   F   F   F
  0.1666700000000034  0.3333299999999966  0.1216000000000008   F   F   F
  0.6666700000000034  0.3333299999999966  0.1216000000000008   F   F   F
  0.9166700000000034  0.3333299999999966  0.1216000000000008   F   F   F
  0.9166700000000135  0.0833299999999982  0.1216000000000008   F   F   F
  0.6666700000000024  0.0833299999999982  0.1216000000000008   F   F   F
  0.4166700000000034  0.3333299999999966  0.1216000000000008   F   F   F
  0.1666699999999967  0.8333299999999775  0.1216000000000008   F   F   F
  0.4166700000000003  0.8333299999999775  0.1216000000000008   F   F   F
  0.4166700000000088  0.5833299999999874  0.1216000000000008   F   F   F
  0.4166700000000190  0.0833299999999982  0.1216000000000008   F   F   F
  0.1666700000000062  0.5833299999999874  0.1216000000000008   F   F   F
  0.6666700000000034  0.8333299999999775  0.1216000000000008   F   F   F
  0.0833299999999978  0.6666700000000094  0.1824000000000012   F   F   F
  0.3333300000000036  0.6666700000000094  0.1824000000000012   F   F   F
  0.3333299999999966  0.9166700000000034  0.1824000000000012   F   F   F
  0.0833299999999946  0.9166700000000034  0.1824000000000012   F   F   F
  0.5833300000000078  0.6666700000000094  0.1824000000000012   F   F   F
  0.8333300000000127  0.6666700000000094  0.1824000000000012   F   F   F
  0.8333300000000078  0.9166700000000034  0.1824000000000012   F   F   F
  0.5833299999999966  0.9166700000000034  0.1824000000000012   F   F   F
  0.0833299999999966  0.1666700000000034  0.1824000000000012   F   F   F
  0.3333300000000012  0.1666700000000034  0.1824000000000012   F   F   F
  0.3333300000000018  0.4166700000000034  0.1824000000000012   F   F   F
  0.0833299999999968  0.4166700000000034  0.1824000000000012   F   F   F
  0.5833299999999966  0.1666700000000034  0.1824000000000012   F   F   F
  0.8333300000000166  0.1666700000000034  0.1824000000000012   F   F   F
  0.8333300000000158  0.4166700000000034  0.1824000000000012   F   F   F
  0.5833300000000078  0.4166700000000034  0.1824000000000012   F   F   F
  0.2496947212216160  0.4997251874294992  0.2425791242610119   T   T   T
  0.4994642150145185  0.4999479911240612  0.2442078311887291   T   T   T
  0.7497158011152023  0.4992997150296354  0.2425588739569954   T   T   T
  0.9997382687463376  0.4998202624056106  0.2421006081259376   T   T   T
  0.7498401131663940  0.7507209805901901  0.2427823096440949   T   T   T
  0.2502444861621425  0.7504732384519013  0.2425663768655347   T   T   T
  0.5004895701429768  0.7502474751759307  0.2430695198101984   T   T   T
  0.0002830059138848  0.7500409914973711  0.2423878512650603   T   T   T
  0.7492992525795599  0.2506248221787851  0.2426621358188649   T   T   T
  0.9999445766424567  0.0005041895618862  0.2423304820147953   T   T   T
  0.2501897777007203  0.9998638924430772  0.2425669332047817   T   T   T
  0.5002092320907451  0.2498015882730549  0.2427794430541464   T   T   T
  0.0013688175203725  0.2504049906849048  0.2425937654088496   T   T   T
  0.5000964208016180  0.0006643306392990  0.2427100491698255   T   T   T
  0.7507195295519203  0.9993149866058820  0.2430991036946591   T   T   T
  0.2492567067717714  0.2499258871061292  0.2432951173658381   T   T   T
  0.1645670493094606  0.0805785778327704  0.3032823394530038   T   T   T
  0.4177157602115670  0.8348211987573050  0.3034446157964797   T   T   T
  0.6654851370283065  0.8305471954478826  0.3054042520757289   T   T   T
  0.4155650377824509  0.3308315383799529  0.3025087741597840   T   T   T
  0.1684679036250723  0.3362058538837727  0.3048215562849347   T   T   T
  0.1655321419766255  0.5830800370083847  0.3031022449770327   T   T   T
  0.6694857375774836  0.5847297873781837  0.3022715505518266   T   T   T
  0.9168150184379775  0.8340980971742735  0.3030898877124243   T   T   T
  0.1668963880954606  0.8330412039377348  0.3038967626255327   T   T   T
  0.9159781412695063  0.3321613524978935  0.3026041397249438   T   T   T
  0.6650108599825503  0.3349822931346702  0.3051162167202419   T   T   T
  0.9168891561350930  0.5825834420814899  0.3031395490652093   T   T   T
  0.6686924045159824  0.0842561371474915  0.3027672306225583   T   T   T
  0.4164978394392816  0.0840509997680509  0.3042254709402629   T   T   T
  0.9200506175002748  0.0860726743648899  0.3042193263510969   T   T   T
  0.4141933768842853  0.5833498231527974  0.3030639912139251   T   T   T
  0.3341580919285356  0.9173354704993427  0.3630922693187557   T   T   T
  0.8358011439820494  0.9207304026086249  0.3616636485776410   T   T   T
  0.0796480712997550  0.4161815191462981  0.3613367161892514   T   T   T
  0.5810572996332506  0.4192554251485286  0.3680206223659526   T   T   T
  0.0824507021006035  0.6658519465102125  0.3624390837894536   T   T   T
  0.8408701026529748  0.6704720057301541  0.3623011248585220   T   T   T
  0.3291866123823199  0.6707754003421355  0.3625493804470459   T   T   T
  0.5805624289855666  0.6617624239945760  0.3681449903531078   T   T   T
  0.5858379145964800  0.9205882015385810  0.3617581728367077   T   T   T
  0.5855697389576707  0.1650127035778966  0.3614901516337160   T   T   T
  0.8343213171681698  0.1669419015075911  0.3623700423120383   T   T   T
  0.8345284692431679  0.4145545634131226  0.3613394855112709   T   T   T
  0.0817713459564029  0.9144952202972613  0.3622199958291553   T   T   T
  0.3330028839820072  0.4138159459888556  0.3697747450105792   T   T   T
  0.3261818340133434  0.1609349872207052  0.3637045765367290   T   T   T
  0.0904595624786738  0.1703810441688516  0.3641877843330504   T   T   T
  0.2344398039483720  0.4969607519873191  0.4256752495163564   T   T   T
  0.5028174807233535  0.7641756520528632  0.4252374920931335   T   T   T
  0.7524673207390764  0.0017032401090016  0.4230387062497269   T   T   T
  0.5009444061898041  0.0011658983691551  0.4239660865849847   T   T   T
  0.2468221953130635  0.7509576202530212  0.4246602028338272   T   T   T
  0.7611273793412233  0.7642613768641636  0.4253607604980704   T   T   T
  0.9990137498735907  0.4993683175731462  0.4238922420552441   T   T   T
  0.7605801180566737  0.4961838549051960  0.4252394354761823   T   T   T
  0.7508933584108769  0.2500374066719571  0.4231436242975070   T   T   T
  0.0004635625070221  0.2512511258739051  0.4229757943763074   T   T   T
  0.5032082360525122  0.2388846538725773  0.4250231754106296   T   T   T
  0.0028395794204345  0.7507809727886221  0.4246346986152768   T   T   T
  0.2455896999283930  0.9961260589796334  0.4243674347820227   T   T   T
  0.0017043060390487  0.0003247549541872  0.4235900349525162   T   T   T
  0.2412863333677120  0.2408624051701995  0.4407878636539923   T   T   T
 
  0.00000000E+00  0.00000000E+00  0.00000000E+00
  0.00000000E+00  0.00000000E+00  0.00000000E+00
  0.00000000E+00  0.00000000E+00  0.00000000E+00
  0.00000000E+00  0.00000000E+00  0.00000000E+00
  0.00000000E+00  0.00000000E+00  0.00000000E+00
  0.00000000E+00  0.00000000E+00  0.00000000E+00
  0.00000000E+00  0.00000000E+00  0.00000000E+00
  0.00000000E+00  0.00000000E+00  0.00000000E+00
  0.00000000E+00  0.00000000E+00  0.00000000E+00
  0.00000000E+00  0.00000000E+00  0.00000000E+00
  0.00000000E+00  0.00000000E+00  0.00000000E+00
  0.00000000E+00  0.00000000E+00  0.00000000E+00
  0.00000000E+00  0.00000000E+00  0.00000000E+00
  0.00000000E+00  0.00000000E+00  0.00000000E+00
  0.00000000E+00  0.00000000E+00  0.00000000E+00
  0.00000000E+00  0.00000000E+00  0.00000000E+00
  0.00000000E+00  0.00000000E+00  0.00000000E+00
  0.00000000E+00  0.00000000E+00  0.00000000E+00
  0.00000000E+00  0.00000000E+00  0.00000000E+00
  0.00000000E+00  0.00000000E+00  0.00000000E+00
  0.00000000E+00  0.00000000E+00  0.00000000E+00
  0.00000000E+00  0.00000000E+00  0.00000000E+00
  0.00000000E+00  0.00000000E+00  0.00000000E+00
  0.00000000E+00  0.00000000E+00  0.00000000E+00
  0.00000000E+00  0.00000000E+00  0.00000000E+00
  0.00000000E+00  0.00000000E+00  0.00000000E+00
  0.00000000E+00  0.00000000E+00  0.00000000E+00
  0.00000000E+00  0.00000000E+00  0.00000000E+00
  0.00000000E+00  0.00000000E+00  0.00000000E+00
  0.00000000E+00  0.00000000E+00  0.00000000E+00
  0.00000000E+00  0.00000000E+00  0.00000000E+00
  0.00000000E+00  0.00000000E+00  0.00000000E+00
  0.00000000E+00  0.00000000E+00  0.00000000E+00
  0.00000000E+00  0.00000000E+00  0.00000000E+00
  0.00000000E+00  0.00000000E+00  0.00000000E+00
  0.00000000E+00  0.00000000E+00  0.00000000E+00
  0.00000000E+00  0.00000000E+00  0.00000000E+00
  0.00000000E+00  0.00000000E+00  0.00000000E+00
  0.00000000E+00  0.00000000E+00  0.00000000E+00
  0.00000000E+00  0.00000000E+00  0.00000000E+00
  0.00000000E+00  0.00000000E+00  0.00000000E+00
  0.00000000E+00  0.00000000E+00  0.00000000E+00
  0.00000000E+00  0.00000000E+00  0.00000000E+00
  0.00000000E+00  0.00000000E+00  0.00000000E+00
  0.00000000E+00  0.00000000E+00  0.00000000E+00
  0.00000000E+00  0.00000000E+00  0.00000000E+00
  0.00000000E+00  0.00000000E+00  0.00000000E+00
  0.00000000E+00  0.00000000E+00  0.00000000E+00
  0.00000000E+00  0.00000000E+00  0.00000000E+00
  0.00000000E+00  0.00000000E+00  0.00000000E+00
  0.00000000E+00  0.00000000E+00  0.00000000E+00
  0.00000000E+00  0.00000000E+00  0.00000000E+00
  0.00000000E+00  0.00000000E+00  0.00000000E+00
  0.00000000E+00  0.00000000E+00  0.00000000E+00
  0.00000000E+00  0.00000000E+00  0.00000000E+00
  0.00000000E+00  0.00000000E+00  0.00000000E+00
  0.00000000E+00  0.00000000E+00  0.00000000E+00
  0.00000000E+00  0.00000000E+00  0.00000000E+00
  0.00000000E+00  0.00000000E+00  0.00000000E+00
  0.00000000E+00  0.00000000E+00  0.00000000E+00
  0.00000000E+00  0.00000000E+00  0.00000000E+00
  0.00000000E+00  0.00000000E+00  0.00000000E+00
  0.00000000E+00  0.00000000E+00  0.00000000E+00
  0.00000000E+00  0.00000000E+00  0.00000000E+00
  0.00000000E+00  0.00000000E+00  0.00000000E+00
  0.00000000E+00  0.00000000E+00  0.00000000E+00
  0.00000000E+00  0.00000000E+00  0.00000000E+00
  0.00000000E+00  0.00000000E+00  0.00000000E+00
  0.00000000E+00  0.00000000E+00  0.00000000E+00
  0.00000000E+00  0.00000000E+00  0.00000000E+00
  0.00000000E+00  0.00000000E+00  0.00000000E+00
  0.00000000E+00  0.00000000E+00  0.00000000E+00
  0.00000000E+00  0.00000000E+00  0.00000000E+00
  0.00000000E+00  0.00000000E+00  0.00000000E+00
  0.00000000E+00  0.00000000E+00  0.00000000E+00
  0.00000000E+00  0.00000000E+00  0.00000000E+00
  0.00000000E+00  0.00000000E+00  0.00000000E+00
  0.00000000E+00  0.00000000E+00  0.00000000E+00
  0.00000000E+00  0.00000000E+00  0.00000000E+00
  0.00000000E+00  0.00000000E+00  0.00000000E+00
  0.00000000E+00  0.00000000E+00  0.00000000E+00
  0.00000000E+00  0.00000000E+00  0.00000000E+00
  0.00000000E+00  0.00000000E+00  0.00000000E+00
  0.00000000E+00  0.00000000E+00  0.00000000E+00
  0.00000000E+00  0.00000000E+00  0.00000000E+00
  0.00000000E+00  0.00000000E+00  0.00000000E+00
  0.00000000E+00  0.00000000E+00  0.00000000E+00
  0.00000000E+00  0.00000000E+00  0.00000000E+00
  0.00000000E+00  0.00000000E+00  0.00000000E+00
  0.00000000E+00  0.00000000E+00  0.00000000E+00
  0.00000000E+00  0.00000000E+00  0.00000000E+00
  0.00000000E+00  0.00000000E+00  0.00000000E+00
  0.00000000E+00  0.00000000E+00  0.00000000E+00
  0.00000000E+00  0.00000000E+00  0.00000000E+00
  0.00000000E+00  0.00000000E+00  0.00000000E+00
  0.00000000E+00  0.00000000E+00  0.00000000E+00
  0.00000000E+00  0.00000000E+00  0.00000000E+00
  0.00000000E+00  0.00000000E+00  0.00000000E+00
  0.00000000E+00  0.00000000E+00  0.00000000E+00
  0.00000000E+00  0.00000000E+00  0.00000000E+00
  0.00000000E+00  0.00000000E+00  0.00000000E+00
  0.00000000E+00  0.00000000E+00  0.00000000E+00
  0.00000000E+00  0.00000000E+00  0.00000000E+00
  0.00000000E+00  0.00000000E+00  0.00000000E+00
  0.00000000E+00  0.00000000E+00  0.00000000E+00
  0.00000000E+00  0.00000000E+00  0.00000000E+00
  0.00000000E+00  0.00000000E+00  0.00000000E+00
  0.00000000E+00  0.00000000E+00  0.00000000E+00
  0.00000000E+00  0.00000000E+00  0.00000000E+00
  0.00000000E+00  0.00000000E+00  0.00000000E+00
  0.00000000E+00  0.00000000E+00  0.00000000E+00
  0.00000000E+00  0.00000000E+00  0.00000000E+00
  0.00000000E+00  0.00000000E+00  0.00000000E+00
  0.00000000E+00  0.00000000E+00  0.00000000E+00
  0.00000000E+00  0.00000000E+00  0.00000000E+00
  0.00000000E+00  0.00000000E+00  0.00000000E+00
  0.00000000E+00  0.00000000E+00  0.00000000E+00
  0.00000000E+00  0.00000000E+00  0.00000000E+00
  0.00000000E+00  0.00000000E+00  0.00000000E+00
  0.00000000E+00  0.00000000E+00  0.00000000E+00
  0.00000000E+00  0.00000000E+00  0.00000000E+00
  0.00000000E+00  0.00000000E+00  0.00000000E+00
  0.00000000E+00  0.00000000E+00  0.00000000E+00
  0.00000000E+00  0.00000000E+00  0.00000000E+00
  0.00000000E+00  0.00000000E+00  0.00000000E+00
  0.00000000E+00  0.00000000E+00  0.00000000E+00
  0.00000000E+00  0.00000000E+00  0.00000000E+00
  0.00000000E+00  0.00000000E+00  0.00000000E+00
  0.00000000E+00  0.00000000E+00  0.00000000E+00
  0.00000000E+00  0.00000000E+00  0.00000000E+00
  0.00000000E+00  0.00000000E+00  0.00000000E+00
  0.00000000E+00  0.00000000E+00  0.00000000E+00
  0.00000000E+00  0.00000000E+00  0.00000000E+00
  0.00000000E+00  0.00000000E+00  0.00000000E+00
  0.00000000E+00  0.00000000E+00  0.00000000E+00
  0.00000000E+00  0.00000000E+00  0.00000000E+00
  0.00000000E+00  0.00000000E+00  0.00000000E+00
  0.00000000E+00  0.00000000E+00  0.00000000E+00
  0.00000000E+00  0.00000000E+00  0.00000000E+00
  0.00000000E+00  0.00000000E+00  0.00000000E+00
  0.00000000E+00  0.00000000E+00  0.00000000E+00
  0.00000000E+00  0.00000000E+00  0.00000000E+00
  0.00000000E+00  0.00000000E+00  0.00000000E+00
  0.00000000E+00  0.00000000E+00  0.00000000E+00
  0.00000000E+00  0.00000000E+00  0.00000000E+00
  0.00000000E+00  0.00000000E+00  0.00000000E+00
  0.00000000E+00  0.00000000E+00  0.00000000E+00
  0.00000000E+00  0.00000000E+00  0.00000000E+00
  0.00000000E+00  0.00000000E+00  0.00000000E+00
  0.00000000E+00  0.00000000E+00  0.00000000E+00
  0.00000000E+00  0.00000000E+00  0.00000000E+00
  0.00000000E+00  0.00000000E+00  0.00000000E+00
  0.00000000E+00  0.00000000E+00  0.00000000E+00
  0.00000000E+00  0.00000000E+00  0.00000000E+00
  0.00000000E+00  0.00000000E+00  0.00000000E+00
  0.00000000E+00  0.00000000E+00  0.00000000E+00
  0.00000000E+00  0.00000000E+00  0.00000000E+00
  0.00000000E+00  0.00000000E+00  0.00000000E+00
  0.00000000E+00  0.00000000E+00  0.00000000E+00
  0.00000000E+00  0.00000000E+00  0.00000000E+00
  0.00000000E+00  0.00000000E+00  0.00000000E+00
  0.00000000E+00  0.00000000E+00  0.00000000E+00
  0.00000000E+00  0.00000000E+00  0.00000000E+00
  0.00000000E+00  0.00000000E+00  0.00000000E+00
  0.00000000E+00  0.00000000E+00  0.00000000E+00
  0.00000000E+00  0.00000000E+00  0.00000000E+00
  0.00000000E+00  0.00000000E+00  0.00000000E+00
  0.00000000E+00  0.00000000E+00  0.00000000E+00
  0.00000000E+00  0.00000000E+00  0.00000000E+00
  0.00000000E+00  0.00000000E+00  0.00000000E+00
  0.00000000E+00  0.00000000E+00  0.00000000E+00
  0.00000000E+00  0.00000000E+00  0.00000000E+00
  0.00000000E+00  0.00000000E+00  0.00000000E+00
  0.00000000E+00  0.00000000E+00  0.00000000E+00
  0.00000000E+00  0.00000000E+00  0.00000000E+00
  0.00000000E+00  0.00000000E+00  0.00000000E+00
  0.00000000E+00  0.00000000E+00  0.00000000E+00
  0.00000000E+00  0.00000000E+00  0.00000000E+00
  0.00000000E+00  0.00000000E+00  0.00000000E+00
  0.00000000E+00  0.00000000E+00  0.00000000E+00
  0.00000000E+00  0.00000000E+00  0.00000000E+00
  0.00000000E+00  0.00000000E+00  0.00000000E+00
  0.00000000E+00  0.00000000E+00  0.00000000E+00
  0.00000000E+00  0.00000000E+00  0.00000000E+00
  0.00000000E+00  0.00000000E+00  0.00000000E+00
  0.00000000E+00  0.00000000E+00  0.00000000E+00
  0.00000000E+00  0.00000000E+00  0.00000000E+00
  0.00000000E+00  0.00000000E+00  0.00000000E+00
  0.00000000E+00  0.00000000E+00  0.00000000E+00
  0.00000000E+00  0.00000000E+00  0.00000000E+00
  0.00000000E+00  0.00000000E+00  0.00000000E+00
  0.00000000E+00  0.00000000E+00  0.00000000E+00
