C    H    O    Ti                       
   1.00000000000000     
    10.2284000000000006    0.0000000000000000    0.0000000000000000
     0.0000000000000000   11.5668000000000006    0.0000000000000000
     0.0000010000000000    0.0000010000000000   24.5208000000000013
   C    H    O    Ti
     1     2    73    36
Selective dynamics
Direct
  0.3708828353960015  0.6518733478630886  0.4410954348767334   T   T   T
  0.4608610291457758  0.8027630858656695  0.4267214416417731   T   T   T
  0.4769032737543742  0.6451365430918873  0.4403356221070803   T   T   T
  0.3247980654999379  0.7307488539885163  0.4561686691421328   T   T   T
  0.3192291041972642  0.5717264414698118  0.4492887256861732   T   T   T
  0.0117774843778233  0.6635391343555731  0.4600553339549445   T   T   T
  0.1089333217707621  0.7476442358982585  0.4891744646872260   T   T   T
  0.2521800000000027  0.8333299999999966  0.0000000000000000   F   F   F
  0.7521800000000027  0.6666700000000034  0.0000000000000000   F   F   F
  0.2521800000000027  0.1666700000000034  0.0000000000000000   F   F   F
  0.7521800000000027  0.0000000000000000  0.0000000000000000   F   F   F
  0.2521800000000027  0.5000000000000000  0.0000000000000000   F   F   F
  0.7521800000000027  0.3333299999999966  0.0000000000000000   F   F   F
  0.0377000000000010  0.0000000000000000  0.0364099999999965   F   F   F
  0.5377000000000010  0.1666700000000034  0.0364099999999965   F   F   F
  0.0377000000000010  0.3333299999996271  0.0364099999999965   F   F   F
  0.5377000000000010  0.5000000000000000  0.0364099999999965   F   F   F
  0.0377000000000010  0.6666700000000034  0.0364099999999965   F   F   F
  0.5377000000000010  0.8333299999999966  0.0364099999999965   F   F   F
  0.3952799999999996  0.0000000000000000  0.0605899999999977   F   F   F
  0.8952799999999996  0.1666699999998400  0.0605899999999977   F   F   F
  0.3952799999999996  0.3333299999999966  0.0605899999999977   F   F   F
  0.8952799999999996  0.5000000000000000  0.0605899999999977   F   F   F
  0.3952799999999996  0.6666700000000034  0.0605899999999977   F   F   F
  0.8952799999999996  0.8333299999999966  0.0605899999999977   F   F   F
  0.1808100000001645  0.1666700000000034  0.0970000000000013   F   F   F
  0.6808100000000010  0.0000000000000000  0.0970000000000013   F   F   F
  0.1808100000001645  0.5000000000000000  0.0970000000000013   F   F   F
  0.6808100000000010  0.3333299999996271  0.0970000000000013   F   F   F
  0.1808100000001645  0.8333299999989663  0.0970000000000013   F   F   F
  0.6808100000000010  0.6666700000000034  0.0970000000000013   F   F   F
  0.3942699999999988  0.8333299999999966  0.1456400000000002   F   F   F
  0.8942699999999988  0.6666700000000034  0.1456400000000002   F   F   F
  0.3942699999999988  0.1666700000000034  0.1456400000000002   F   F   F
  0.8942699999999988  0.0000000000000000  0.1456400000000002   F   F   F
  0.3942699999999988  0.5000000000000000  0.1456400000000002   F   F   F
  0.8942699999999988  0.3333299999999966  0.1456400000000002   F   F   F
  0.6797899999999970  0.8333299999999966  0.1820499999999967   F   F   F
  0.1797899999999970  0.0000000000000000  0.1820499999999967   F   F   F
  0.6797899999999970  0.1666700000000034  0.1820499999999967   F   F   F
  0.1797899999999970  0.3333299999999966  0.1820499999999967   F   F   F
  0.6797899999999970  0.5000000000000000  0.1820499999999967   F   F   F
  0.1797899999999970  0.6666700000000034  0.1820499999999967   F   F   F
  0.5330798370825995  0.6670190315904206  0.2080193000933410   T   T   T
  0.0333998816088184  0.1665694022294677  0.2074780575502063   T   T   T
  0.5332538343409997  0.9993475314821514  0.2085995411095205   T   T   T
  0.5331014352049419  0.3338761966608762  0.2085678674249725   T   T   T
  0.0343649243926880  0.4996420750218511  0.2086110142857496   T   T   T
  0.0343738818567533  0.8334895157150650  0.2087348415393057   T   T   T
  0.8185754098257148  0.6660506534850813  0.2450718307703363   T   T   T
  0.3211051542233804  0.1665987266196368  0.2449183319578670   T   T   T
  0.8207438209702228  0.0000730528706570  0.2452161177322536   T   T   T
  0.8205661050337296  0.3328814766451880  0.2452019697805446   T   T   T
  0.3202315971665427  0.5070764718994323  0.2470588365519529   T   T   T
  0.3200136700061276  0.8260023018838872  0.2461487945356669   T   T   T
  0.5405223384994206  0.5038876271958256  0.2930499563485019   T   T   T
  0.5433378195788386  0.1658444179064910  0.2929068798215878   T   T   T
  0.0430028050616216  0.0023313329900325  0.2930487666837489   T   T   T
  0.0424894915046331  0.3300191170993033  0.2929697538253372   T   T   T
  0.5389578723262701  0.8312362746823366  0.2947860163713130   T   T   T
  0.0400138080470041  0.6659200755799969  0.2963875068297213   T   T   T
  0.3215890819419669  0.3302931435668786  0.3269083038226449   T   T   T
  0.3198505215370993  0.0022842758549600  0.3274070852330343   T   T   T
  0.8224605878748542  0.8329157965319375  0.3282457962811319   T   T   T
  0.8205226937615815  0.4981477523874285  0.3293676398735346   T   T   T
  0.8241519045398469  0.1661175011646795  0.3299463629352409   T   T   T
  0.3354583919284168  0.6674530159916087  0.3558859565825266   T   T   T
  0.1850920028410073  0.8430691197547532  0.3718065412048842   T   T   T
  0.1869281064796505  0.4906500627042323  0.3689769821357712   T   T   T
  0.6738862593056434  0.6671840005613239  0.3676530099339327   T   T   T
  0.6864502875231733  0.3309912081468746  0.3667372750926786   T   T   T
  0.6865825317899984  0.9991397215579204  0.3663560826836263   T   T   T
  0.1890574613581281  0.1669761380316764  0.3711564444866746   T   T   T
  0.4767777176582570  0.4749545989447641  0.3915560807571560   T   T   T
  0.4810157060869149  0.8571248581061504  0.3976766435664638   T   T   T
  0.4746813519057071  0.1648944791925776  0.3922881963614955   T   T   T
  0.9709926582396574  1.0009709266426445  0.3922966790869160   T   T   T
  0.9715339492291635  0.3324996683208817  0.3922239420639057   T   T   T
  0.9472613448785965  0.6643100511927179  0.3951087285876870   T   T   T
  0.1039260206813748  0.6709495623125098  0.4728830736382059   T   T   T
  0.5737299999999976  0.0000000000000000  0.0302900000000008   F   F   F
  0.5737299999999976  0.3333299999996271  0.0302900000000008   F   F   F
  0.0737299999999976  0.5000000000000000  0.0302900000000008   F   F   F
  0.0737299999999976  0.1666700000000034  0.0302900000000008   F   F   F
  0.5737299999999976  0.6666700000000034  0.0302900000000008   F   F   F
  0.0737299999999976  0.8333299999999966  0.0302900000000008   F   F   F
  0.8592500000000030  0.0000000000000000  0.0666999999999973   F   F   F
  0.3592500000000030  0.5000000000000000  0.0666999999999973   F   F   F
  0.8592500000000030  0.3333299999999966  0.0666999999999973   F   F   F
  0.3592500000000030  0.8333299999999966  0.0666999999999973   F   F   F
  0.3592500000000030  0.1666700000000034  0.0666999999999973   F   F   F
  0.8592500000000030  0.6666700000000034  0.0666999999999973   F   F   F
  0.7158200000000008  0.0000000000000000  0.1759300000000010   F   F   F
  0.7158200000000008  0.3333299999999966  0.1759300000000010   F   F   F
  0.2158200000000008  0.5000000000000000  0.1759300000000010   F   F   F
  0.2158200000000008  0.1666699999998400  0.1759300000000010   F   F   F
  0.7158200000000008  0.6666700000000034  0.1759300000000010   F   F   F
  0.2158200000000008  0.8333299999999966  0.1759300000000010   F   F   F
  0.4961634527962334  0.1668019573454380  0.2132110671268759   T   T   T
  0.9964744722534431  0.3332694305050520  0.2134279377813591   T   T   T
  0.9966579431742758  0.9998300112966686  0.2133793624611282   T   T   T
  0.4960934766444824  0.5007873926519797  0.2135154103844255   T   T   T
  0.4962674785760444  0.8327916798050806  0.2133774703489671   T   T   T
  0.9981724334438730  0.6665185406892737  0.2167969060153331   T   T   T
  0.8638759750549646  0.6634086825830884  0.3274523638375370   T   T   T
  0.8623954412134071  0.3321829420058964  0.3288239234232958   T   T   T
  0.8637987377885156  0.0019529506625826  0.3287222287282993   T   T   T
  0.3625090751233215  0.1642826937431640  0.3291808556709900   T   T   T
  0.3594485401902167  0.4929068213589780  0.3306531449718918   T   T   T
  0.3535181366203952  0.8324043127485171  0.3293347205757589   T   T   T
  0.6369000808080051  0.4972852697562159  0.3572504020782178   T   T   T
  0.6457723657762989  0.8328709496683835  0.3554101635993225   T   T   T
  0.6367428936821222  0.1658019913615079  0.3582444318228795   T   T   T
  0.1354958209341064  0.3305040391925040  0.3589835706855414   T   T   T
  0.1364004653747762  0.0029050200235150  0.3592121162901618   T   T   T
  0.1314033335533503  0.6662757729864661  0.3741651850924915   T   T   T
 
  0.00000000E+00  0.00000000E+00  0.00000000E+00
  0.00000000E+00  0.00000000E+00  0.00000000E+00
  0.00000000E+00  0.00000000E+00  0.00000000E+00
  0.00000000E+00  0.00000000E+00  0.00000000E+00
  0.00000000E+00  0.00000000E+00  0.00000000E+00
  0.00000000E+00  0.00000000E+00  0.00000000E+00
  0.00000000E+00  0.00000000E+00  0.00000000E+00
  0.00000000E+00  0.00000000E+00  0.00000000E+00
  0.00000000E+00  0.00000000E+00  0.00000000E+00
  0.00000000E+00  0.00000000E+00  0.00000000E+00
  0.00000000E+00  0.00000000E+00  0.00000000E+00
  0.00000000E+00  0.00000000E+00  0.00000000E+00
  0.00000000E+00  0.00000000E+00  0.00000000E+00
  0.00000000E+00  0.00000000E+00  0.00000000E+00
  0.00000000E+00  0.00000000E+00  0.00000000E+00
  0.00000000E+00  0.00000000E+00  0.00000000E+00
  0.00000000E+00  0.00000000E+00  0.00000000E+00
  0.00000000E+00  0.00000000E+00  0.00000000E+00
  0.00000000E+00  0.00000000E+00  0.00000000E+00
  0.00000000E+00  0.00000000E+00  0.00000000E+00
  0.00000000E+00  0.00000000E+00  0.00000000E+00
  0.00000000E+00  0.00000000E+00  0.00000000E+00
  0.00000000E+00  0.00000000E+00  0.00000000E+00
  0.00000000E+00  0.00000000E+00  0.00000000E+00
  0.00000000E+00  0.00000000E+00  0.00000000E+00
  0.00000000E+00  0.00000000E+00  0.00000000E+00
  0.00000000E+00  0.00000000E+00  0.00000000E+00
  0.00000000E+00  0.00000000E+00  0.00000000E+00
  0.00000000E+00  0.00000000E+00  0.00000000E+00
  0.00000000E+00  0.00000000E+00  0.00000000E+00
  0.00000000E+00  0.00000000E+00  0.00000000E+00
  0.00000000E+00  0.00000000E+00  0.00000000E+00
  0.00000000E+00  0.00000000E+00  0.00000000E+00
  0.00000000E+00  0.00000000E+00  0.00000000E+00
  0.00000000E+00  0.00000000E+00  0.00000000E+00
  0.00000000E+00  0.00000000E+00  0.00000000E+00
  0.00000000E+00  0.00000000E+00  0.00000000E+00
  0.00000000E+00  0.00000000E+00  0.00000000E+00
  0.00000000E+00  0.00000000E+00  0.00000000E+00
  0.00000000E+00  0.00000000E+00  0.00000000E+00
  0.00000000E+00  0.00000000E+00  0.00000000E+00
  0.00000000E+00  0.00000000E+00  0.00000000E+00
  0.00000000E+00  0.00000000E+00  0.00000000E+00
  0.00000000E+00  0.00000000E+00  0.00000000E+00
  0.00000000E+00  0.00000000E+00  0.00000000E+00
  0.00000000E+00  0.00000000E+00  0.00000000E+00
  0.00000000E+00  0.00000000E+00  0.00000000E+00
  0.00000000E+00  0.00000000E+00  0.00000000E+00
  0.00000000E+00  0.00000000E+00  0.00000000E+00
  0.00000000E+00  0.00000000E+00  0.00000000E+00
  0.00000000E+00  0.00000000E+00  0.00000000E+00
  0.00000000E+00  0.00000000E+00  0.00000000E+00
  0.00000000E+00  0.00000000E+00  0.00000000E+00
  0.00000000E+00  0.00000000E+00  0.00000000E+00
  0.00000000E+00  0.00000000E+00  0.00000000E+00
  0.00000000E+00  0.00000000E+00  0.00000000E+00
  0.00000000E+00  0.00000000E+00  0.00000000E+00
  0.00000000E+00  0.00000000E+00  0.00000000E+00
  0.00000000E+00  0.00000000E+00  0.00000000E+00
  0.00000000E+00  0.00000000E+00  0.00000000E+00
  0.00000000E+00  0.00000000E+00  0.00000000E+00
  0.00000000E+00  0.00000000E+00  0.00000000E+00
  0.00000000E+00  0.00000000E+00  0.00000000E+00
  0.00000000E+00  0.00000000E+00  0.00000000E+00
  0.00000000E+00  0.00000000E+00  0.00000000E+00
  0.00000000E+00  0.00000000E+00  0.00000000E+00
  0.00000000E+00  0.00000000E+00  0.00000000E+00
  0.00000000E+00  0.00000000E+00  0.00000000E+00
  0.00000000E+00  0.00000000E+00  0.00000000E+00
  0.00000000E+00  0.00000000E+00  0.00000000E+00
  0.00000000E+00  0.00000000E+00  0.00000000E+00
  0.00000000E+00  0.00000000E+00  0.00000000E+00
  0.00000000E+00  0.00000000E+00  0.00000000E+00
  0.00000000E+00  0.00000000E+00  0.00000000E+00
  0.00000000E+00  0.00000000E+00  0.00000000E+00
  0.00000000E+00  0.00000000E+00  0.00000000E+00
  0.00000000E+00  0.00000000E+00  0.00000000E+00
  0.00000000E+00  0.00000000E+00  0.00000000E+00
  0.00000000E+00  0.00000000E+00  0.00000000E+00
  0.00000000E+00  0.00000000E+00  0.00000000E+00
  0.00000000E+00  0.00000000E+00  0.00000000E+00
  0.00000000E+00  0.00000000E+00  0.00000000E+00
  0.00000000E+00  0.00000000E+00  0.00000000E+00
  0.00000000E+00  0.00000000E+00  0.00000000E+00
  0.00000000E+00  0.00000000E+00  0.00000000E+00
  0.00000000E+00  0.00000000E+00  0.00000000E+00
  0.00000000E+00  0.00000000E+00  0.00000000E+00
  0.00000000E+00  0.00000000E+00  0.00000000E+00
  0.00000000E+00  0.00000000E+00  0.00000000E+00
  0.00000000E+00  0.00000000E+00  0.00000000E+00
  0.00000000E+00  0.00000000E+00  0.00000000E+00
  0.00000000E+00  0.00000000E+00  0.00000000E+00
  0.00000000E+00  0.00000000E+00  0.00000000E+00
  0.00000000E+00  0.00000000E+00  0.00000000E+00
  0.00000000E+00  0.00000000E+00  0.00000000E+00
  0.00000000E+00  0.00000000E+00  0.00000000E+00
  0.00000000E+00  0.00000000E+00  0.00000000E+00
  0.00000000E+00  0.00000000E+00  0.00000000E+00
  0.00000000E+00  0.00000000E+00  0.00000000E+00
  0.00000000E+00  0.00000000E+00  0.00000000E+00
  0.00000000E+00  0.00000000E+00  0.00000000E+00
  0.00000000E+00  0.00000000E+00  0.00000000E+00
  0.00000000E+00  0.00000000E+00  0.00000000E+00
  0.00000000E+00  0.00000000E+00  0.00000000E+00
  0.00000000E+00  0.00000000E+00  0.00000000E+00
  0.00000000E+00  0.00000000E+00  0.00000000E+00
  0.00000000E+00  0.00000000E+00  0.00000000E+00
  0.00000000E+00  0.00000000E+00  0.00000000E+00
  0.00000000E+00  0.00000000E+00  0.00000000E+00
  0.00000000E+00  0.00000000E+00  0.00000000E+00
  0.00000000E+00  0.00000000E+00  0.00000000E+00
  0.00000000E+00  0.00000000E+00  0.00000000E+00
  0.00000000E+00  0.00000000E+00  0.00000000E+00
  0.00000000E+00  0.00000000E+00  0.00000000E+00
  0.00000000E+00  0.00000000E+00  0.00000000E+00
  0.00000000E+00  0.00000000E+00  0.00000000E+00
