cb7                                     
   1.00000000000000     
    10.2194000000000003    0.0000000000000000    0.0000000000000000
     0.0000000000000000   11.5639000000000003    0.0000000000000000
     0.0000010000000000    0.0000010000000000   36.6572000000000031
   C    H    O    Ti
     2     8   120    60
Selective dynamics
Direct
  0.4941025918187155  0.3827608789570568  0.2089822607301244   T   T   T
  0.4381093856869642  0.4519016828220520  0.7595844720783602   T   T   T
  0.4805660757769777  0.2288358875457186  0.2340006024937260   T   T   T
  0.4516945450660745  0.6053270855959906  0.7342340747659475   T   T   T
  0.4790405302848209  0.4722869744693413  0.2177366880868527   T   T   T
  0.4531011020203113  0.3621960545198739  0.7510049022589637   T   T   T
  0.5958100449163328  0.3690427342470610  0.2006243103052846   T   T   T
  0.3364191467905028  0.4658230927795760  0.7679244427074623   T   T   T
  0.4267074074541772  0.3596660203538828  0.1869200891423518   T   T   T
  0.5055537516137633  0.4753884730507206  0.7815935498111789   T   T   T
  0.9631786315434123  0.1598641112270767  0.2521931123132874   T   T   T
  0.9639459203079894  0.5058701905736992  0.2520703301747109   T   T   T
  0.4594700924518336 -0.0008534544242534  0.2523338603384780   T   T   T
  0.4595603542884488  0.6690764995080115  0.2521602301048373   T   T   T
  0.9612991799294561  0.8332848681657731  0.2528624703774765   T   T   T
  0.7613262304918249  0.3331127323531040  0.2682590129504062   T   T   T
  0.2440882861748127  0.1596192246308961  0.2686017500518586   T   T   T
  0.2460544273693760  0.5049142580599032  0.2693813489568874   T   T   T
  0.7488640073987898  0.9986173871371190  0.2695575099144823   T   T   T
  0.7493946444462497  0.6677566702339250  0.2695990095420836   T   T   T
  0.2456979653472885  0.8329019272407453  0.2694033950874456   T   T   T
  0.6079901658700657  0.1649329886750802  0.2909369497625024   T   T   T
  0.6075716279012264  0.5008778026347993  0.2899201877838158   T   T   T
  0.1004895165304344  0.3328287590486223  0.2938789177768212   T   T   T
  0.6090273024761863  0.8331041170029737  0.2941495593379543   T   T   T
  0.1089991946119068  0.6678841136911899  0.2955984917164574   T   T   T
  0.1089784382868119  0.9978531358830489  0.2959240116101470   T   T   T
  0.3930818476273721  0.3337766430843657  0.3188317989882252   T   T   T
  0.8887023957304243  0.1656792013943145  0.3189367054289198   T   T   T
  0.8888031183691978  0.5004904510640168  0.3188328464023973   T   T   T
  0.3904628655169017  0.9995326293681916  0.3190761889403350   T   T   T
  0.3908531798486987  0.6662769772958811  0.3189656871743016   T   T   T
  0.8890492959878955  0.8332571063907250  0.3194757937932875   T   T   T
  0.6115360885365836  0.0020303311089506  0.3510442842956125   T   T   T
  0.6116828746029788  0.6637337346423858  0.3509227292086946   T   T   T
  0.1111627895412682  0.1670011452730390  0.3513042942726817   T   T   T
  0.1111773147597939  0.4993992934498195  0.3512911302570904   T   T   T
  0.1108040023371456  0.8328852373615927  0.3517792050074766   T   T   T
  0.6141405297638486  0.3339646267465021  0.3533366059417349   T   T   T
  0.3970935435441611  0.5000867227866695  0.3760323957687025   T   T   T
  0.3970350817252499  0.1664922091361852  0.3758832016022864   T   T   T
  0.8975313237135620  0.3332713645205789  0.3759714882325408   T   T   T
  0.3974415564594775  0.8332008932764058  0.3757939474073989   T   T   T
  0.8973563636062207  0.9999388145099429  0.3760248147792609   T   T   T
  0.8973373969419506  0.6665559444536043  0.3759465853282913   T   T   T
  0.2516409862951533  0.3332806890691599  0.3941439733983115   T   T   T
  0.7511149862531579  0.8332296599247397  0.3940243649040257   T   T   T
  0.2521788931765018  0.9998867042135074  0.3941538468878547   T   T   T
  0.2522701111491701  0.6665957178215354  0.3941287063774519   T   T   T
  0.7529373018857302  0.1663804579793334  0.3945777188666024   T   T   T
  0.7531908717650287  0.5001939201196299  0.3946586903986307   T   T   T
  0.5361035638688137  0.6669782942769537  0.4180438674576559   T   T   T
  0.5359880662771961  0.9997668245282134  0.4181018994856266   T   T   T
  0.0359295742764729  0.1665648784808025  0.4181681547324577   T   T   T
  0.0358495969730786  0.5001178475203889  0.4181698898843176   T   T   T
  0.0357802623226505  0.8332523641119566  0.4183940205282953   T   T   T
  0.5350492541708060  0.3331189157376198  0.4185753961337493   T   T   T
  0.7516899999999964  0.0000000000000000  0.4518100000000018   F   F   F
  0.2516900000000035  0.5000000000000000  0.4518100000000018   F   F   F
  0.7516899999999964  0.3333299999999966  0.4518100000000018   F   F   F
  0.2516900000000035  0.8333299999999966  0.4518100000000018   F   F   F
  0.7516899999999964  0.6666700000000034  0.4518100000000018   F   F   F
  0.2516900000000035  0.1666700000000034  0.4518100000000018   F   F   F
  0.0372600000000034  0.0000000000000000  0.4761499999999970   F   F   F
  0.0372600000000034  0.3333299999999966  0.4761499999999970   F   F   F
  0.5372600000000034  0.5000000000000000  0.4761499999999970   F   F   F
  0.0372600000000034  0.6666700000000034  0.4761499999999970   F   F   F
  0.5372600000000034  0.8333299999999966  0.4761499999999970   F   F   F
  0.5372600000000034  0.1666700000000034  0.4761499999999970   F   F   F
  0.3948800000000006  0.0000000000000000  0.4923199999999994   F   F   F
  0.3948800000000006  0.6666700000000034  0.4923199999999994   F   F   F
  0.8948800000000006  0.8333299999999966  0.4923199999999994   F   F   F
  0.8948800000000006  0.1666700000000034  0.4923199999999994   F   F   F
  0.3948800000000006  0.3333299999999966  0.4923199999999994   F   F   F
  0.8948800000000006  0.5000000000000000  0.4923199999999994   F   F   F
  0.6804500000000004  0.0000000000000000  0.5166699999999977   F   F   F
  0.1804500000000004  0.8333299999999966  0.5166699999999977   F   F   F
  0.6804500000000004  0.6666700000000034  0.5166699999999977   F   F   F
  0.1804500000000004  0.1666700000000034  0.5166699999999977   F   F   F
  0.1804500000000004  0.5000000000000000  0.5166699999999977   F   F   F
  0.6804500000000004  0.3333299999999966  0.5166699999999977   F   F   F
  0.3970654736316866  0.5002260839221171  0.5498973372204469   T   T   T
  0.8963624661445150  0.0000769593925394  0.5500798558796821   T   T   T
  0.8962996279905759  0.3332281044467890  0.5503065639815422   T   T   T
  0.8962278868654494  0.6667399702171548  0.5503047973507059   T   T   T
  0.3960192616994638  0.1663822571296437  0.5504361172908826   T   T   T
  0.3961427288894068  0.8335449676108703  0.5503720983796386   T   T   T
  0.1792214082081351  0.6669418214211994  0.5739174746438155   T   T   T
  0.1789323573639910  0.3331196199629114  0.5738321211634390   T   T   T
  0.6798382991055463  0.1667223422908592  0.5743339430959080   T   T   T
  0.6799516166577512  0.8334431618147434  0.5743181292001164   T   T   T
  0.1810171001818081  0.0000930970321057  0.5744407946088644   T   T   T
  0.6804904782538602  0.5000426000895505  0.5743162398325715   T   T   T
  0.0346008474351444  0.5000494633561583  0.5925324163585715   T   T   T
  0.0347751150842419  0.8333901792907089  0.5924618799873490   T   T   T
  0.0347903622233707  0.1667543622026335  0.5925428336562256   T   T   T
  0.5346498952534345  1.0001255764346799  0.5926555813148348   T   T   T
  0.5350487368375495  0.3332256215688674  0.5924577569745104   T   T   T
  0.5350981299301594  0.6668399380799348  0.5925964727980449   T   T   T
  0.3179980899422236  0.4992953474016413  0.6151320560885287   T   T   T
  0.8213230112970041  0.0004526756192275  0.6166975711823642   T   T   T
  0.8209369499443430  0.3338848936692606  0.6171814831803000   T   T   T
  0.8209646338914037  0.6663231630952160  0.6171653222267377   T   T   T
  0.3204317013783170  0.1695625486747996  0.6175726035123894   T   T   T
  0.3205915398713498  0.8313296505744131  0.6174481673461300   T   T   T
  0.0430921856480361  1.0000451777355079  0.6490096735758842   T   T   T
  0.5412515493967750  0.1669494954175222  0.6495199218461446   T   T   T
  0.5416508731314351  0.8338831145160027  0.6494062566167587   T   T   T
  0.0433440684200551  0.3328028896744278  0.6496482529666757   T   T   T
  0.0434489667925422  0.6676970924289097  0.6495341072029231   T   T   T
  0.5390358890614854  0.4995330548086474  0.6496283512767925   T   T   T
  0.8231847456189951  0.8354698605928718  0.6725494994527043   T   T   T
  0.8231325091318873  0.1654115659629573  0.6728793707888349   T   T   T
  0.8317047553610997  0.5004712638256656  0.6745738922394100   T   T   T
  0.3231375441840399  1.0001884365941340  0.6743601932403855   T   T   T
  0.3245754148026028  0.3324254281571476  0.6785779063350701   T   T   T
  0.3240941116348320  0.6683830413535827  0.6774973995292133   T   T   T
  0.6864445558113277  0.0004000127201038  0.6991041574890623   T   T   T
  0.6860557459169798  0.3284219893821128  0.6990634359616861   T   T   T
  0.6880862431068974  0.6736856835641615  0.6998402884075587   T   T   T
  0.1832747609246559  0.8346821178575566  0.6989535755837042   T   T   T
  0.1827388998297169  0.1655365151223231  0.6988999439350951   T   T   T
  0.1707969014451188  0.5002006715472581  0.7002063344130650   T   T   T
  0.9708219717972246  1.0000410128053452  0.7156244381944749   T   T   T
  0.4726078546571462  0.1642561338676014  0.7163344661710381   T   T   T
  0.4727250424040540  0.8339436365625151  0.7161614320362311   T   T   T
  0.9681670448221543  0.3274148796341907  0.7164070108529876   T   T   T
  0.9689214292420152  0.6734142080620815  0.7162783539416271   T   T   T
  0.4665848988809009  0.3100437126090664  0.2408205249125925   T   T   T
  0.4656484640437637  0.5239479994169385  0.7275991205904537   T   T   T
  0.7985740922233154  0.1669239801561231  0.2743426500955988   T   T   T
  0.7993273530958617  0.4994454594842169  0.2741443602834615   T   T   T
  0.7967166023567199  0.8332548512507253  0.2752853173934963   T   T   T
  0.2949331091908286  0.9980039352483679  0.2753343165438332   T   T   T
  0.2952246964872836  0.6669262015376197  0.2752372039196387   T   T   T
  0.2877034920089479  0.3311347327632522  0.2757097791946037   T   T   T
  0.5714724390453639 -0.0003189922007411  0.2950549218104365   T   T   T
  0.5714158577137038  0.6664995634120923  0.2947542413739814   T   T   T
  0.0713765573847919  0.1644287651689665  0.2955515784017082   T   T   T
  0.0721103055582447  0.5012908522806574  0.2955240947907232   T   T   T
  0.0702637639771577  0.8329113638793098  0.2960864173476400   T   T   T
  0.5816302714259973  0.3335930691140092  0.2986085243983010   T   T   T
  0.4340762736679799  0.3333832814540501  0.3723643258259975   T   T   T
  0.9349120885709451  0.4995764204935827  0.3728382447834303   T   T   T
  0.9348454632849322  0.1669676870546175  0.3729073204146400   T   T   T
  0.4352039107206074  0.0001101229189399  0.3728867252462991   T   T   T
  0.4354371745125739  0.6663247351006824  0.3727947902216256   T   T   T
  0.9346490191625146  0.8332294646735369  0.3733383303162650   T   T   T
  0.7161201555084586  0.0002893979341985  0.3972550834515217   T   T   T
  0.7160890577298371  0.6661724611692941  0.3971995317100859   T   T   T
  0.2160281989683221  0.1666500927372992  0.3973378929966318   T   T   T
  0.2163873816898065  0.8331581898859985  0.3973836333259751   T   T   T
  0.2160113641238613  0.4999419728991690  0.3974136366655499   T   T   T
  0.7163453527510920  0.3333347336257079  0.3982432837689385   T   T   T
  0.5732900000000001  0.6666700000000034  0.4720599999999990   F   F   F
  0.0732900000000001  0.8333299999999966  0.4720599999999990   F   F   F
  0.5732900000000001  0.3333299999999966  0.4720599999999990   F   F   F
  0.0732900000000001  0.5000000000000000  0.4720599999999990   F   F   F
  0.0732900000000001  0.1666700000000034  0.4720599999999990   F   F   F
  0.5732900000000001  0.0000000000000000  0.4720599999999990   F   F   F
  0.3588499999999968  0.8333299999999966  0.4964099999999974   F   F   F
  0.8588499999999968  0.6666700000000034  0.4964099999999974   F   F   F
  0.3588499999999968  0.1666700000000034  0.4964099999999974   F   F   F
  0.3588499999999968  0.5000000000000000  0.4964099999999974   F   F   F
  0.8588499999999968  0.3333299999999966  0.4964099999999974   F   F   F
  0.8588499999999968  0.0000000000000000  0.4964099999999974   F   F   F
  0.2157707988422651  0.4999761501855808  0.5702358085967513   T   T   T
  0.7161180922429242  0.3333674690786357  0.5710560324207559   T   T   T
  0.7161001851401657  0.6666859139112262  0.5711302712260150   T   T   T
  0.7157380474998841  0.0001693407888291  0.5710858064312752   T   T   T
  0.2160129513392570  0.8330360818382867  0.5712212356697878   T   T   T
  0.2160403487034046  0.1671476255873161  0.5712792520164467   T   T   T
  0.9974764626738195  0.0000889663040152  0.5951404392880452   T   T   T
  0.9972105632862579  0.3337367606492946  0.5956417694790077   T   T   T
  0.9972931006574373  0.6663586117853937  0.5955657890613254   T   T   T
  0.4966676547926814  0.1669996541283773  0.5956865198976982   T   T   T
  0.4969099711057841  0.8332187133350273  0.5955903326095193   T   T   T
  0.4980674219054491  0.4999323858812075  0.5960990465625118   T   T   T
  0.3504792216099841  0.4996864015028186  0.6698539245908571   T   T   T
  0.8618722299559574  0.0004028451603673  0.6723903434691499   T   T   T
  0.8600303894685867  0.3320094217405340  0.6729424701953268   T   T   T
  0.8607781683145969  0.6688846755589404  0.6729047042873284   T   T   T
  0.3607222937827718  0.1667978599460849  0.6737420257721565   T   T   T
  0.3606586656918449  0.8336091540618635  0.6734311126059681   T   T   T
  0.6369049186811344  0.1663897567550290  0.6932446468409660   T   T   T
  0.6372261366145527  0.8353126163134188  0.6931403657600521   T   T   T
  0.1354004737084025  1.0000402154737247  0.6932063933308681   T   T   T
  0.1327920340139836  0.3338498117039568  0.6943436949747800   T   T   T
  0.1335395364180752  0.6663904071425089  0.6941335741536533   T   T   T
  0.6444725281076265  0.5022179543526055  0.6927371282433489   T   T   T
 
  0.00000000E+00  0.00000000E+00  0.00000000E+00
  0.00000000E+00  0.00000000E+00  0.00000000E+00
  0.00000000E+00  0.00000000E+00  0.00000000E+00
  0.00000000E+00  0.00000000E+00  0.00000000E+00
  0.00000000E+00  0.00000000E+00  0.00000000E+00
  0.00000000E+00  0.00000000E+00  0.00000000E+00
  0.00000000E+00  0.00000000E+00  0.00000000E+00
  0.00000000E+00  0.00000000E+00  0.00000000E+00
  0.00000000E+00  0.00000000E+00  0.00000000E+00
  0.00000000E+00  0.00000000E+00  0.00000000E+00
  0.00000000E+00  0.00000000E+00  0.00000000E+00
  0.00000000E+00  0.00000000E+00  0.00000000E+00
  0.00000000E+00  0.00000000E+00  0.00000000E+00
  0.00000000E+00  0.00000000E+00  0.00000000E+00
  0.00000000E+00  0.00000000E+00  0.00000000E+00
  0.00000000E+00  0.00000000E+00  0.00000000E+00
  0.00000000E+00  0.00000000E+00  0.00000000E+00
  0.00000000E+00  0.00000000E+00  0.00000000E+00
  0.00000000E+00  0.00000000E+00  0.00000000E+00
  0.00000000E+00  0.00000000E+00  0.00000000E+00
  0.00000000E+00  0.00000000E+00  0.00000000E+00
  0.00000000E+00  0.00000000E+00  0.00000000E+00
  0.00000000E+00  0.00000000E+00  0.00000000E+00
  0.00000000E+00  0.00000000E+00  0.00000000E+00
  0.00000000E+00  0.00000000E+00  0.00000000E+00
  0.00000000E+00  0.00000000E+00  0.00000000E+00
  0.00000000E+00  0.00000000E+00  0.00000000E+00
  0.00000000E+00  0.00000000E+00  0.00000000E+00
  0.00000000E+00  0.00000000E+00  0.00000000E+00
  0.00000000E+00  0.00000000E+00  0.00000000E+00
  0.00000000E+00  0.00000000E+00  0.00000000E+00
  0.00000000E+00  0.00000000E+00  0.00000000E+00
  0.00000000E+00  0.00000000E+00  0.00000000E+00
  0.00000000E+00  0.00000000E+00  0.00000000E+00
  0.00000000E+00  0.00000000E+00  0.00000000E+00
  0.00000000E+00  0.00000000E+00  0.00000000E+00
  0.00000000E+00  0.00000000E+00  0.00000000E+00
  0.00000000E+00  0.00000000E+00  0.00000000E+00
  0.00000000E+00  0.00000000E+00  0.00000000E+00
  0.00000000E+00  0.00000000E+00  0.00000000E+00
  0.00000000E+00  0.00000000E+00  0.00000000E+00
  0.00000000E+00  0.00000000E+00  0.00000000E+00
  0.00000000E+00  0.00000000E+00  0.00000000E+00
  0.00000000E+00  0.00000000E+00  0.00000000E+00
  0.00000000E+00  0.00000000E+00  0.00000000E+00
  0.00000000E+00  0.00000000E+00  0.00000000E+00
  0.00000000E+00  0.00000000E+00  0.00000000E+00
  0.00000000E+00  0.00000000E+00  0.00000000E+00
  0.00000000E+00  0.00000000E+00  0.00000000E+00
  0.00000000E+00  0.00000000E+00  0.00000000E+00
  0.00000000E+00  0.00000000E+00  0.00000000E+00
  0.00000000E+00  0.00000000E+00  0.00000000E+00
  0.00000000E+00  0.00000000E+00  0.00000000E+00
  0.00000000E+00  0.00000000E+00  0.00000000E+00
  0.00000000E+00  0.00000000E+00  0.00000000E+00
  0.00000000E+00  0.00000000E+00  0.00000000E+00
  0.00000000E+00  0.00000000E+00  0.00000000E+00
  0.00000000E+00  0.00000000E+00  0.00000000E+00
  0.00000000E+00  0.00000000E+00  0.00000000E+00
  0.00000000E+00  0.00000000E+00  0.00000000E+00
  0.00000000E+00  0.00000000E+00  0.00000000E+00
  0.00000000E+00  0.00000000E+00  0.00000000E+00
  0.00000000E+00  0.00000000E+00  0.00000000E+00
  0.00000000E+00  0.00000000E+00  0.00000000E+00
  0.00000000E+00  0.00000000E+00  0.00000000E+00
  0.00000000E+00  0.00000000E+00  0.00000000E+00
  0.00000000E+00  0.00000000E+00  0.00000000E+00
  0.00000000E+00  0.00000000E+00  0.00000000E+00
  0.00000000E+00  0.00000000E+00  0.00000000E+00
  0.00000000E+00  0.00000000E+00  0.00000000E+00
  0.00000000E+00  0.00000000E+00  0.00000000E+00
  0.00000000E+00  0.00000000E+00  0.00000000E+00
  0.00000000E+00  0.00000000E+00  0.00000000E+00
  0.00000000E+00  0.00000000E+00  0.00000000E+00
  0.00000000E+00  0.00000000E+00  0.00000000E+00
  0.00000000E+00  0.00000000E+00  0.00000000E+00
  0.00000000E+00  0.00000000E+00  0.00000000E+00
  0.00000000E+00  0.00000000E+00  0.00000000E+00
  0.00000000E+00  0.00000000E+00  0.00000000E+00
  0.00000000E+00  0.00000000E+00  0.00000000E+00
  0.00000000E+00  0.00000000E+00  0.00000000E+00
  0.00000000E+00  0.00000000E+00  0.00000000E+00
  0.00000000E+00  0.00000000E+00  0.00000000E+00
  0.00000000E+00  0.00000000E+00  0.00000000E+00
  0.00000000E+00  0.00000000E+00  0.00000000E+00
  0.00000000E+00  0.00000000E+00  0.00000000E+00
  0.00000000E+00  0.00000000E+00  0.00000000E+00
  0.00000000E+00  0.00000000E+00  0.00000000E+00
  0.00000000E+00  0.00000000E+00  0.00000000E+00
  0.00000000E+00  0.00000000E+00  0.00000000E+00
  0.00000000E+00  0.00000000E+00  0.00000000E+00
  0.00000000E+00  0.00000000E+00  0.00000000E+00
  0.00000000E+00  0.00000000E+00  0.00000000E+00
  0.00000000E+00  0.00000000E+00  0.00000000E+00
  0.00000000E+00  0.00000000E+00  0.00000000E+00
  0.00000000E+00  0.00000000E+00  0.00000000E+00
  0.00000000E+00  0.00000000E+00  0.00000000E+00
  0.00000000E+00  0.00000000E+00  0.00000000E+00
  0.00000000E+00  0.00000000E+00  0.00000000E+00
  0.00000000E+00  0.00000000E+00  0.00000000E+00
  0.00000000E+00  0.00000000E+00  0.00000000E+00
  0.00000000E+00  0.00000000E+00  0.00000000E+00
  0.00000000E+00  0.00000000E+00  0.00000000E+00
  0.00000000E+00  0.00000000E+00  0.00000000E+00
  0.00000000E+00  0.00000000E+00  0.00000000E+00
  0.00000000E+00  0.00000000E+00  0.00000000E+00
  0.00000000E+00  0.00000000E+00  0.00000000E+00
  0.00000000E+00  0.00000000E+00  0.00000000E+00
  0.00000000E+00  0.00000000E+00  0.00000000E+00
  0.00000000E+00  0.00000000E+00  0.00000000E+00
  0.00000000E+00  0.00000000E+00  0.00000000E+00
  0.00000000E+00  0.00000000E+00  0.00000000E+00
  0.00000000E+00  0.00000000E+00  0.00000000E+00
  0.00000000E+00  0.00000000E+00  0.00000000E+00
  0.00000000E+00  0.00000000E+00  0.00000000E+00
  0.00000000E+00  0.00000000E+00  0.00000000E+00
  0.00000000E+00  0.00000000E+00  0.00000000E+00
  0.00000000E+00  0.00000000E+00  0.00000000E+00
  0.00000000E+00  0.00000000E+00  0.00000000E+00
  0.00000000E+00  0.00000000E+00  0.00000000E+00
  0.00000000E+00  0.00000000E+00  0.00000000E+00
  0.00000000E+00  0.00000000E+00  0.00000000E+00
  0.00000000E+00  0.00000000E+00  0.00000000E+00
  0.00000000E+00  0.00000000E+00  0.00000000E+00
  0.00000000E+00  0.00000000E+00  0.00000000E+00
  0.00000000E+00  0.00000000E+00  0.00000000E+00
  0.00000000E+00  0.00000000E+00  0.00000000E+00
  0.00000000E+00  0.00000000E+00  0.00000000E+00
  0.00000000E+00  0.00000000E+00  0.00000000E+00
  0.00000000E+00  0.00000000E+00  0.00000000E+00
  0.00000000E+00  0.00000000E+00  0.00000000E+00
  0.00000000E+00  0.00000000E+00  0.00000000E+00
  0.00000000E+00  0.00000000E+00  0.00000000E+00
  0.00000000E+00  0.00000000E+00  0.00000000E+00
  0.00000000E+00  0.00000000E+00  0.00000000E+00
  0.00000000E+00  0.00000000E+00  0.00000000E+00
  0.00000000E+00  0.00000000E+00  0.00000000E+00
  0.00000000E+00  0.00000000E+00  0.00000000E+00
  0.00000000E+00  0.00000000E+00  0.00000000E+00
  0.00000000E+00  0.00000000E+00  0.00000000E+00
  0.00000000E+00  0.00000000E+00  0.00000000E+00
  0.00000000E+00  0.00000000E+00  0.00000000E+00
  0.00000000E+00  0.00000000E+00  0.00000000E+00
  0.00000000E+00  0.00000000E+00  0.00000000E+00
  0.00000000E+00  0.00000000E+00  0.00000000E+00
  0.00000000E+00  0.00000000E+00  0.00000000E+00
  0.00000000E+00  0.00000000E+00  0.00000000E+00
  0.00000000E+00  0.00000000E+00  0.00000000E+00
  0.00000000E+00  0.00000000E+00  0.00000000E+00
  0.00000000E+00  0.00000000E+00  0.00000000E+00
  0.00000000E+00  0.00000000E+00  0.00000000E+00
  0.00000000E+00  0.00000000E+00  0.00000000E+00
  0.00000000E+00  0.00000000E+00  0.00000000E+00
  0.00000000E+00  0.00000000E+00  0.00000000E+00
  0.00000000E+00  0.00000000E+00  0.00000000E+00
  0.00000000E+00  0.00000000E+00  0.00000000E+00
  0.00000000E+00  0.00000000E+00  0.00000000E+00
  0.00000000E+00  0.00000000E+00  0.00000000E+00
  0.00000000E+00  0.00000000E+00  0.00000000E+00
  0.00000000E+00  0.00000000E+00  0.00000000E+00
  0.00000000E+00  0.00000000E+00  0.00000000E+00
  0.00000000E+00  0.00000000E+00  0.00000000E+00
  0.00000000E+00  0.00000000E+00  0.00000000E+00
  0.00000000E+00  0.00000000E+00  0.00000000E+00
  0.00000000E+00  0.00000000E+00  0.00000000E+00
  0.00000000E+00  0.00000000E+00  0.00000000E+00
  0.00000000E+00  0.00000000E+00  0.00000000E+00
  0.00000000E+00  0.00000000E+00  0.00000000E+00
  0.00000000E+00  0.00000000E+00  0.00000000E+00
  0.00000000E+00  0.00000000E+00  0.00000000E+00
  0.00000000E+00  0.00000000E+00  0.00000000E+00
  0.00000000E+00  0.00000000E+00  0.00000000E+00
  0.00000000E+00  0.00000000E+00  0.00000000E+00
  0.00000000E+00  0.00000000E+00  0.00000000E+00
  0.00000000E+00  0.00000000E+00  0.00000000E+00
  0.00000000E+00  0.00000000E+00  0.00000000E+00
  0.00000000E+00  0.00000000E+00  0.00000000E+00
  0.00000000E+00  0.00000000E+00  0.00000000E+00
  0.00000000E+00  0.00000000E+00  0.00000000E+00
  0.00000000E+00  0.00000000E+00  0.00000000E+00
  0.00000000E+00  0.00000000E+00  0.00000000E+00
  0.00000000E+00  0.00000000E+00  0.00000000E+00
  0.00000000E+00  0.00000000E+00  0.00000000E+00
  0.00000000E+00  0.00000000E+00  0.00000000E+00
  0.00000000E+00  0.00000000E+00  0.00000000E+00
  0.00000000E+00  0.00000000E+00  0.00000000E+00
  0.00000000E+00  0.00000000E+00  0.00000000E+00
  0.00000000E+00  0.00000000E+00  0.00000000E+00
  0.00000000E+00  0.00000000E+00  0.00000000E+00
  0.00000000E+00  0.00000000E+00  0.00000000E+00