3l_dsur
1.00000000000000
10.2194000000000003 0.0000000000000000 0.0000000000000000
0.0000000000000000 11.5639000000000003 0.0000000000000000
0.0000010000000000 0.0000010000000000 24.5173999999999985
C H O Ti
1 4 72 36
Selective dynamics
Direct
  0.45659695    0.32689682    0.50306239   T  T  T
  0.44136962    0.25044000    0.47736442   T  T  T
  0.45190254    0.40447372    0.47742102   T  T  T
  0.55321414    0.32153349    0.52249884   T  T  T
  0.38100314    0.33094111    0.53478693   T  T  T
  0.47429813    0.50339807    0.38835287   T  T  T
  0.25169000    0.83333000    0.00000000   T  T  T
  0.75169000    0.66667000    0.00000000   T  T  T
  0.25169000    0.16667000    0.00000000   T  T  T
  0.75169000    0.00000000    0.00000000   T  T  T
  0.25169000    0.50000000    0.00000000   T  T  T
  0.75169000    0.33333000    0.00000000   T  T  T
  0.03726000    0.00000000    0.03640000   T  T  T
  0.53726000    0.16667000    0.03640000   T  T  T
  0.03726000    0.33333000    0.03640000   T  T  T
  0.53726000    0.50000000    0.03640000   T  T  T
  0.03726000    0.66667000    0.03640000   T  T  T
  0.53726000    0.83333000    0.03640000   T  T  T
  0.39488000    0.00000000    0.06057000   T  T  T
  0.89488000    0.16667000    0.06057000   T  T  T
  0.39488000    0.33333000    0.06057000   T  T  T
  0.89488000    0.50000000    0.06057000   T  T  T
  0.39488000    0.66667000    0.06057000   T  T  T
  0.89488000    0.83333000    0.06057000   T  T  T
  0.18045000    0.16667000    0.09697000   T  T  T
  0.68045000    0.00000000    0.09697000   T  T  T
  0.18045000    0.50000000    0.09697000   T  T  T
  0.68045000    0.33333000    0.09697000   T  T  T
  0.18045000    0.83333000    0.09697000   T  T  T
  0.68045000    0.66667000    0.09697000   T  T  T
  0.39396000    0.83333000    0.14561000   T  T  T
  0.89396000    0.66667000    0.14561000   T  T  T
  0.39396000    0.16667000    0.14561000   T  T  T
  0.89396000    0.00000000    0.14561000   T  T  T
  0.39396000    0.50000000    0.14561000   T  T  T
  0.89396000    0.33333000    0.14561000   T  T  T
  0.67953000    0.83333000    0.18201000   T  T  T
  0.17953000    0.00000000    0.18201000   T  T  T
  0.67953000    0.16667000    0.18201000   T  T  T
  0.17953000    0.33333000    0.18201000   T  T  T
  0.67953000    0.50000000    0.18201000   T  T  T
  0.17953000    0.66667000    0.18201000   T  T  T
  0.53715000    0.00000000    0.20618000   T  T  T
  0.03715000    0.16667000    0.20618000   T  T  T
  0.53715000    0.33333000    0.20618000   T  T  T
  0.03715000    0.50000000    0.20618000   T  T  T
  0.53715000    0.66667000    0.20618000   T  T  T
  0.03715000    0.83333000    0.20618000   T  T  T
  0.32272000    0.16667000    0.24258000   T  T  T
  0.82272000    0.00000000    0.24258000   T  T  T
  0.32272000    0.50000000    0.24258000   T  T  T
  0.82272000    0.33333000    0.24258000   T  T  T
  0.32272000    0.83333000    0.24258000   T  T  T
  0.82272000    0.66667000    0.24258000   T  T  T
  0.54274073    0.83052363    0.29011940   T  T  T
  0.04528437    0.67032224    0.28968653   T  T  T
  0.54274091    0.16947656    0.29011957   T  T  T
  0.04328110   -0.00000024    0.28954923   T  T  T
  0.53117627    0.50000011    0.29737135   T  T  T
  0.04528457    0.32967753    0.28968627   T  T  T
  0.82340078    0.83376252    0.32823073   T  T  T
  0.32920060    0.00000003    0.32992066   T  T  T
  0.82340062    0.16623770    0.32823054   T  T  T
  0.33087925    0.33688708    0.33389755   T  T  T
  0.82888623    0.50000014    0.31826913   T  T  T
  0.33087887    0.66311247    0.33389739   T  T  T
  0.67999472    0.00000027    0.35910223   T  T  T
  0.18262998    0.16643046    0.35976887   T  T  T
  0.68506683    0.33912684    0.36295384   T  T  T
  0.17791139    0.49999971    0.35937017   T  T  T
  0.68506705    0.66087336    0.36295418   T  T  T
  0.18262972    0.83356921    0.35976915   T  T  T
  0.47416342    0.16633611    0.38815637   T  T  T
  0.97310292    0.00000013    0.38630422   T  T  T
  0.97296490    0.33307394    0.38658656   T  T  T
  0.47416298    0.83366368    0.38815629   T  T  T
  0.97296483    0.66692601    0.38658681   T  T  T
  0.57329000    0.00000000    0.03029000   T  T  T
  0.57329000    0.33333000    0.03029000   T  T  T
  0.07329000    0.50000000    0.03029000   T  T  T
  0.07329000    0.16667000    0.03029000   T  T  T
  0.57329000    0.66667000    0.03029000   T  T  T
  0.07329000    0.83333000    0.03029000   T  T  T
  0.85885000    0.00000000    0.06669000   T  T  T
  0.35885000    0.50000000    0.06669000   T  T  T
  0.85885000    0.33333000    0.06669000   T  T  T
  0.35885000    0.83333000    0.06669000   T  T  T
  0.35885000    0.16667000    0.06669000   T  T  T
  0.85885000    0.66667000    0.06669000   T  T  T
  0.71556000    0.00000000    0.17589000   T  T  T
  0.71556000    0.33333000    0.17589000   T  T  T
  0.21556000    0.50000000    0.17589000   T  T  T
  0.21556000    0.16667000    0.17589000   T  T  T
  0.71556000    0.66667000    0.17589000   T  T  T
  0.21556000    0.83333000    0.17589000   T  T  T
  0.00112000    0.00000000    0.21230000   T  T  T
  0.50112000    0.50000000    0.21230000   T  T  T
  0.00112000    0.33333000    0.21230000   T  T  T
  0.50112000    0.83333000    0.21230000   T  T  T
  0.00112000    0.66667000    0.21230000   T  T  T
  0.50112000    0.16667000    0.21230000   T  T  T
  0.86507251    0.32383032    0.32378818   T  T  T
  0.86029445    0.00000007    0.32438576   T  T  T
  0.34030268    0.50000017    0.31675326   T  T  T
  0.35744675    0.16585858    0.32441072   T  T  T
  0.86507266    0.67617012    0.32378840   T  T  T
  0.35744540    0.83414293    0.32441050   T  T  T
  0.13457253   -0.00000001    0.35317683   T  T  T
  0.66663860    0.50000031    0.34653909   T  T  T
  0.13533953    0.33142810    0.35402162   T  T  T
  0.63044000    0.83487654    0.35424837   T  T  T
  0.13533949    0.66857095    0.35402185   T  T  T
  0.63044085    0.16512384    0.35424850   T  T  T
